3
Properties=species:S:1:pos:R:3:forces_ref:R:3 energy_ref=-1723.537779 pbc="T T T" Lattice="19.999988 0.000000 0.000000 0.000000 19.999988 0.000000 0.000000 0.000000 19.999988"
Ar        1.4130391591        0.3560797881       18.5083589852        0.0259036094        0.0067607163       -0.0273092316
Ar       18.3315390904        1.2388992627        0.1728198972       -0.0307884487        0.0224202785        0.0031706847
Ar        0.2554098480       18.4050090467        1.3188192151        0.0048848393       -0.0291809949        0.0241385469
4
Properties=species:S:1:pos:R:3:forces_ref:R:3 energy_ref=-2298.072053 pbc="T T T" Lattice="19.999988 0.000000 0.000000 0.000000 19.999988 0.000000 0.000000 0.000000 19.999988"
Ar       18.8345587911        0.1417699156        1.8784388821       -0.0299734089        0.0036630510        0.0473268140
Ar        0.8075595194        1.9959888121       19.4796484071        0.0203083742        0.0502167342       -0.0130984861
Ar       18.6842488805       19.2870985217       18.3667390695       -0.0329162938       -0.0180990251       -0.0411553946
Ar        1.6735990040       18.5751289454        0.2751398363        0.0425813285       -0.0357805030        0.0069270667
5
Properties=species:S:1:pos:R:3:forces_ref:R:3 energy_ref=-2872.607094 pbc="T T T" Lattice="19.999988 0.000000 0.000000 0.000000 19.999988 0.000000 0.000000 0.000000 19.999988"
Ar       19.1595985976        2.3756585862        1.5251490923       -0.0158860764        0.0447608529        0.0292581280
Ar        0.8403894999       17.6243295113       18.4748390051        0.0157109843       -0.0447729370       -0.0292244465
Ar       18.6627988933       18.8216287987        1.0986693462       -0.0426196380       -0.0377551104        0.0353344166
Ar       19.3727984707        0.9173294541       18.2254991535       -0.0202353549        0.0296486786       -0.0568116144
Ar        1.9643888309        0.2610298447        0.6758195978        0.0630300850        0.0081185160        0.0214435164
6
Properties=species:S:1:pos:R:3:forces_ref:R:3 energy_ref=-3447.148567 pbc="T T T" Lattice="19.999988 0.000000 0.000000 0.000000 19.999988 0.000000 0.000000 0.000000 19.999988"
Ar        2.4029785699        0.8562794904       19.8484381877        0.0620877756        0.0224508747       -0.0042304935
Ar       17.5970095276       19.1437086071        0.1515399098       -0.0620877756       -0.0224508747        0.0042304935
Ar        0.6394796194       18.5616889534        2.0131688019        0.0165586771       -0.0374041548        0.0521437762
Ar       19.3604984781        1.4383091440       17.9868192956       -0.0165586771        0.0374041548       -0.0521437762
Ar       19.4107184482        1.9309488508        1.5667390676       -0.0152954940        0.0496765454        0.0404545118
Ar        0.5892696493       18.0690392466       18.4332490299        0.0152954940       -0.0496765454       -0.0404545118
7
Properties=species:S:1:pos:R:3:forces_ref:R:3 energy_ref=-4021.687210 pbc="T T T" Lattice="19.999988 0.000000 0.000000 0.000000 19.999988 0.000000 0.000000 0.000000 19.999988"
Ar       16.9220199293        0.0514099694       19.7282582592       -0.0678059095        0.0009981023       -0.0058446322
Ar       19.1826585839        2.7789283462       18.9230587384       -0.0177532117        0.0611405811       -0.0236598075
Ar       18.9150387432       17.2528197324        0.9089894590       -0.0237112295       -0.0602751477        0.0201798191
Ar        2.5728184688        1.6660690085       19.6061483319        0.0564801991        0.0366413084       -0.0090392281
Ar        2.4074285673       18.2507491385        0.8335195040        0.0529606157       -0.0385354403        0.0183386519
Ar       19.8570381825        0.6317396240        1.7386589653       -0.0060930008        0.0276234204        0.0775431922
Ar        0.1429399149       19.3682384734       18.2613291322        0.0059225366       -0.0275928243       -0.0775179954
8
Properties=species:S:1:pos:R:3:forces_ref:R:3 energy_ref=-4596.223706 pbc="T T T" Lattice="19.999988 0.000000 0.000000 0.000000 19.999988 0.000000 0.000000 0.000000 19.999988"
Ar        0.8936694682        3.7151477890       18.9192487407        0.0064177311        0.0546020081       -0.0048442159
Ar       18.4694290083       17.9842992971        2.4804785238       -0.0306650357       -0.0324282984        0.0511752416
Ar       16.8677499616       19.2126585660       19.4534784227       -0.0648941349       -0.0053257835       -0.0155358921
Ar        2.0053288066       18.8185288006        2.2969586330        0.0478094101       -0.0139538922        0.0462904023
Ar        2.6023484513        0.5400796786       19.1477286047        0.0711473154        0.0026423229       -0.0203430841
Ar       19.4174284442        0.7884895307       17.3907896503       -0.0202613230        0.0108456854       -0.0711977091
Ar        0.2076998764       17.8574993725       19.3267884981        0.0147488774       -0.0747417180       -0.0387010193
Ar       19.5363183734        1.0832693553        0.9844694141       -0.0243028404        0.0583596757        0.0531562767
9
Properties=species:S:1:pos:R:3:forces_ref:R:3 energy_ref=-5170.768626 pbc="T T T" Lattice="19.999988 0.000000 0.000000 0.000000 19.999988 0.000000 0.000000 0.000000 19.999988"
Ar       17.2515297332        0.2440298548        2.4532285400       -0.0576469659        0.0074960519        0.0341187989
Ar       18.7558188379       19.5318283761       16.5531901488       -0.0339290515       -0.0028806642       -0.0572638715
Ar        0.3526297901        2.0909587556        3.0224882012        0.0102561314        0.0481701359        0.0462865456
Ar        1.8611488924        1.3812891780       17.1232398095        0.0326093041        0.0365826872       -0.0450570440
Ar       17.8403393827       17.9164893374       19.7005982756       -0.0520085362       -0.0528621425       -0.0065941088
Ar        2.8179783229        0.8810494757        0.6143496344        0.0700473974        0.0196154619        0.0151810799
Ar        0.4378197394       18.6058689272        2.1380687276        0.0239647403       -0.0576806473        0.0560927339
Ar        1.3146492176       18.1946391719       18.6957188737        0.0449765684       -0.0679051541       -0.0242635025
Ar       19.3680484736        1.1537993133       19.6990582766       -0.0382693311        0.0694645283       -0.0185008885
10
Properties=species:S:1:pos:R:3:forces_ref:R:3 energy_ref=-5745.314239 pbc="T T T" Lattice="19.999988 0.000000 0.000000 0.000000 19.999988 0.000000 0.000000 0.000000 19.999988"
Ar       19.6378683130        3.7478677695       19.3658284749       -0.0137091232        0.0606255891        0.0011166302
Ar        1.4796091194       19.5392983716        3.4880079242        0.0144853393       -0.0005553583        0.0653121963
Ar       16.5054101772       18.4612590132       19.9963580996       -0.0592829589       -0.0158117715        0.0099080040
Ar        2.5069585080        2.1100987442        1.0316993860        0.0513009685        0.0470370507        0.0240030498
Ar       19.4929083993       17.0233698689        1.6384090249       -0.0138875578       -0.0619687335        0.0370907373
Ar       17.7149294574        1.0759693597       17.6692294846       -0.0480181837        0.0232396892       -0.0440381157
Ar        2.4152585626       18.5882489376        0.1624499033        0.0755675564       -0.0467130916       -0.0116578969
Ar       19.5275683786       17.9526193159       18.1217392153       -0.0005023936       -0.0580048634       -0.0604402126
Ar        1.3531591947        1.0336293849       17.7542594340        0.0436737903        0.0167427681       -0.0695802279
Ar       19.3662384746        0.4675897217        0.7719695406       -0.0496269231        0.0354084643        0.0482855785
11
Properties=species:S:1:pos:R:3:forces_ref:R:3 energy_ref=-6319.858589 pbc="T T T" Lattice="19.999988 0.000000 0.000000 0.000000 19.999988 0.000000 0.000000 0.000000 19.999988"
Ar        3.4121079694       19.3032385121        1.8604188928        0.0635746447       -0.0004116337        0.0144321175
Ar        0.6024896414        2.0410887853       16.6743100767        0.0300554271        0.0323660777       -0.0478456627
Ar        0.9740294203        1.9222088560        2.8437883076        0.0232818553        0.0464685797        0.0483182315
Ar        1.5871990554       16.8078199972       19.8124082091        0.0353549854       -0.0599882126       -0.0142814508
Ar       19.3498384844        3.5048979141       19.8458081892       -0.0021810670        0.0706755180        0.0014452172
Ar       19.9624681198       18.3910390550       16.8134199939        0.0099874511       -0.0355444757       -0.0605767381
Ar        0.0820399512       18.3638690712        2.7797783457       -0.0123850050       -0.0441892966        0.0715082984
Ar       17.5403895612        0.8405894997       18.0882992352       -0.0733695201        0.0150669229       -0.0402812194
Ar       17.7100294603        0.8533394922        1.6910989936       -0.0701376432        0.0160881651        0.0465580541
Ar       18.0845792374       17.7411194418       19.8451781896       -0.0615717552       -0.0614354867        0.0006726006
Ar        0.6947495865        0.2307398627       19.7454182490        0.0573908840        0.0209038418       -0.0199491911
12
Properties=species:S:1:pos:R:3:forces_ref:R:3 energy_ref=-6894.411064 pbc="T T T" Lattice="19.999988 0.000000 0.000000 0.000000 19.999988 0.000000 0.000000 0.000000 19.999988"
Ar        0.8309695055       17.5003095851        2.6080584479        0.0162516873       -0.0321735021        0.0589425448
Ar        1.7250789734        3.2320780765        0.5643096642        0.0297954886        0.0559202128        0.0276625012
Ar       18.0291992703        2.8308583153        1.3574491921       -0.0270096981        0.0494060653        0.0395487121
Ar        3.4567079428       19.9376281346        1.3372092042        0.0566874301        0.0053090714        0.0392424937
Ar       17.4766195992       19.2885085209        2.6204684405       -0.0354624575       -0.0049907688        0.0587988202
Ar       19.2787685267        2.5589284771       17.9335593273       -0.0185965336        0.0585550796       -0.0570720671
Ar        1.9815088208       17.4168796348       19.1398986093        0.0461631326       -0.0647277845       -0.0286572611
Ar       18.4162990400       17.0298898651       19.9049681540       -0.0388989943       -0.0733980593       -0.0102214215
Ar        2.5145485035        0.8340395036       17.9214693345        0.0582514323        0.0174343949       -0.0578264289
Ar       16.7459400340        0.2078598763       19.1593985977       -0.0798726119        0.0024998838       -0.0274953795
Ar       19.4723684115       19.0308186743       17.0510598525       -0.0136309616       -0.0255379985       -0.0782751853
Ar        0.0719399572        0.1321499214        0.4020997607        0.0063220861        0.0117031483        0.0353521572
13
Properties=species:S:1:pos:R:3:forces_ref:R:3 energy_ref=-7468.971887 pbc="T T T" Lattice="19.999988 0.000000 0.000000 0.000000 19.999988 0.000000 0.000000 0.000000 19.999988"
Ar        3.2898880421        1.0812193565        0.5886296497        0.0759475654        0.0247263011        0.0135941949
Ar        2.3559885979       17.5126795777        0.7755695384        0.0543310138       -0.0576078851        0.0175079284
Ar        2.3681185907       19.2501185437       17.5163195756        0.0544716532       -0.0173577760       -0.0573127224
Ar        1.1408593210        2.6921083979       18.0532092561        0.0262674205        0.0616674002       -0.0448426139
Ar        1.1212193327       19.8808381684        3.3267980201        0.0257727402       -0.0029919930        0.0765363481
Ar        0.3702297797        3.0818981659        1.6442990214        0.0088060291        0.0711311175        0.0375296246
Ar       16.7101000554       18.9187587409       19.4113584478       -0.0759475654       -0.0247263011       -0.0135941949
Ar       19.6297583178       16.9180899316       18.3556890760       -0.0088060291       -0.0711311175       -0.0375296246
Ar       18.8591387764       17.3078796996        1.9467788414       -0.0262674205       -0.0616674002        0.0448426139
Ar       18.8787687647        0.1191499291       16.6731900773       -0.0257727402        0.0029919930       -0.0765363481
Ar       17.6440094996        2.4873185197       19.2244185590       -0.0543310138        0.0576078851       -0.0175079284
Ar       17.6318695068        0.7498695537        2.4836685219       -0.0544716532        0.0173577760        0.0573127224
Ar        0.0000000000        0.0000000000        0.0000000000        0.0000000000        0.0000000000        0.0000000000
14
Properties=species:S:1:pos:R:3:forces_ref:R:3 energy_ref=-8043.510342 pbc="T T T" Lattice="19.999988 0.000000 0.000000 0.000000 19.999988 0.000000 0.000000 0.000000 19.999988"
Ar       18.5983489316        0.9795894170        5.0084770193       -0.0139135259        0.0098362702        0.0508875351
Ar        2.8935682780       19.3107685076       17.5710395430        0.0639975912       -0.0142575395       -0.0485581154
Ar       19.9969880993        1.2725892426       16.3767202538       -0.0019866916        0.0300191746       -0.0757017680
Ar       19.6459783082       17.6438194997       16.9882298899       -0.0099889937       -0.0519753689       -0.0615923240
Ar        1.6551290150       16.7893600082       19.9602281211        0.0350410537       -0.0723043120        0.0090816513
Ar       16.9726198991       19.9607681208       18.0295292701       -0.0724634633        0.0012557269       -0.0357473358
Ar        2.2225686773        2.6555484196       18.9716787094        0.0483845660        0.0629704354       -0.0139518353
Ar        3.2467580678       19.8875681644        1.1965892879        0.0706500641       -0.0004134334        0.0373339636
Ar       18.5605689541        3.0614981780       19.2643585353       -0.0352847943        0.0717247853       -0.0067879700
Ar       17.9926692921       17.1906897694        0.2537098490       -0.0482570392       -0.0619070270        0.0153600287
Ar        0.2189898697       18.5747389457        2.8562283002        0.0140173985       -0.0484264749        0.0617566175
Ar       17.3185896932        0.5391696791        1.6603390119       -0.0746969808        0.0112784021        0.0248941942
Ar        0.5704696605        2.2083386858        2.2439086646        0.0246895344        0.0622674957        0.0429433399
Ar        0.1066599365       19.9254481418       19.6188683243       -0.0001889761       -0.0000676200        0.0000815040
15
Properties=species:S:1:pos:R:3:forces_ref:R:3 energy_ref=-8618.056896 pbc="T T T" Lattice="19.999988 0.000000 0.000000 0.000000 19.999988 0.000000 0.000000 0.000000 19.999988"
Ar       19.3178685034        3.8566477048       16.8860399507       -0.0194455119        0.0386336564       -0.0496683179
Ar        1.5562090739        4.7421271778       19.6448083089        0.0296347946        0.0584242104        0.0105911461
Ar       18.2057691653       17.1292498059        2.3771485853       -0.0392748896       -0.0514585771        0.0486679015
Ar        1.0989393460       16.0304904598        0.3824797724        0.0262185695       -0.0767312378        0.0029955925
Ar       17.9295593296       16.9273299261       18.6895188774       -0.0459206776       -0.0548506338       -0.0362749262
Ar        1.5931390519       18.3766590636        3.2049880926        0.0379800819       -0.0216988269        0.0673122577
Ar        1.1466493176       17.9847992968       17.2564197302        0.0271835046       -0.0317600686       -0.0696020823
Ar       18.7160888616        0.6653996040        3.2881680431       -0.0273483124        0.0300042622        0.0704266352
Ar       16.4496302104       19.7687682351        0.4946897056       -0.0805562682        0.0093035376        0.0046925208
Ar        3.4130979688       18.8814287632        0.0499099703        0.0803341249       -0.0107011894       -0.0038944503
Ar       18.2997091094        0.3701397797       17.3297496866       -0.0448148460        0.0014562730       -0.0657235729
Ar        1.9212988566        1.8028489271        1.7934489327        0.0488982724        0.0381155791        0.0495937559
Ar       18.7095088655        2.6304884345        0.2027198794       -0.0506810755        0.0553026338        0.0230975072
Ar        1.7093589827        1.4912291125       18.1344592077        0.0575348657        0.0142966203       -0.0512078946
Ar       19.9330981373       19.3422784889        0.2653798421        0.0002573674        0.0016635039       -0.0010063299
16
Properties=species:S:1:pos:R:3:forces_ref:R:3 energy_ref=-9192.603483 pbc="T T T" Lattice="19.999988 0.000000 0.000000 0.000000 19.999988 0.000000 0.000000 0.000000 19.999988"
Ar       17.6079295211        0.5446096759        4.2875974483       -0.0389858976        0.0140562221        0.0496876011
Ar       19.9389581338       15.3704908526        1.7221989751       -0.0037175584       -0.0635993273        0.0112143816
Ar        0.3295998038       18.0246392731        4.2835374508        0.0166648636       -0.0244293387        0.0646820189
Ar        1.9416588445        2.4124185643       16.8986599432        0.0413495129        0.0452794444       -0.0535262585
Ar       18.3039791068        2.7859383420       17.3505496742       -0.0435308370        0.0542731640       -0.0419454947
Ar       19.6948282791       19.6986782768       15.8198505852       -0.0108811666       -0.0190505904       -0.0782024231
Ar        2.8341483133       18.8895887583       17.5633095476        0.0617381055       -0.0372411468       -0.0371719841
Ar        0.5981296440        3.8528477071        0.0241699856        0.0088721064        0.0781114060        0.0199777303
Ar        3.4021179753        1.4626491295        0.1413099159        0.0770839931        0.0242773865        0.0202204425
Ar       16.9231099286       19.5026483935       18.2073091643       -0.0746363027       -0.0223667996       -0.0223989384
Ar       19.7474082478       17.0515798521       18.4455290226       -0.0099614829       -0.0688302371       -0.0397220045
Ar       17.5051795822        2.0285987927        0.9132094565       -0.0625266629        0.0467112919        0.0177084745
Ar        2.0562787763       18.1845591779        1.0984093463        0.0672374385       -0.0338280071        0.0188873254
Ar        0.6897895895        1.2176992753        2.6022884513        0.0331024417        0.0417804298        0.0565910137
Ar       18.2690791276       18.5129989824        1.4263191512       -0.0621715936       -0.0344419866        0.0128508889
Ar        0.1577499061        0.4599497263       19.2156585642        0.0003632969       -0.0007021683        0.0011474834
17
Properties=species:S:1:pos:R:3:forces_ref:R:3 energy_ref=-9767.150798 pbc="T T T" Lattice="19.999988 0.000000 0.000000 0.000000 19.999988 0.000000 0.000000 0.000000 19.999988"
Ar       15.1461609861        0.2686598401       18.4505690196       -0.0589775119       -0.0021131899       -0.0278087970
Ar        1.2349592650       19.2397785499        4.8917770888        0.0229776937       -0.0027112285        0.0609487768
Ar       15.8882405445        0.9147494556        2.0109088033       -0.0551851344        0.0232898257        0.0390103230
Ar       17.8655793677       18.2367891468        3.7579777635       -0.0386524255       -0.0365173812        0.0483624545
Ar        2.0342387894       19.2581985389       16.1470103905        0.0291401143       -0.0187348590       -0.0725408535
Ar        3.8349977177        1.5390290841       18.4321990305        0.0710053905        0.0327885100       -0.0194876780
Ar        0.6492496136        2.5871084603       16.8224199885       -0.0017696905        0.0570373572       -0.0571831388
Ar        3.5564778834       17.9841692971       19.2931985181        0.0644007402       -0.0482349277       -0.0004082912
Ar        0.2557498478       16.7958000044       18.1815991796       -0.0111938128       -0.0765800569       -0.0273562828
Ar        1.3472191982        3.4219179635        0.3378997989        0.0150581811        0.0772158907        0.0234587472
Ar       18.3634090714       19.6698282940       16.7584100266       -0.0337912403       -0.0132872051       -0.0704693155
Ar        3.0391781913        0.5206996901        1.9461388418        0.0651898118        0.0178815097        0.0415333468
Ar       17.9777493010        2.2666886510       19.3349484933       -0.0343327147        0.0697355226       -0.0104754465
Ar        0.8465594962       17.5736095415        1.7508889580        0.0179851252       -0.0722089240        0.0248561419
Ar       17.7456094391       18.5191189788        0.1699498989       -0.0407414470       -0.0575834596       -0.0032516744
Ar       19.4624484174        1.1016193444        2.4086285666       -0.0076729438        0.0504733303        0.0479436217
Ar        0.7520695524        0.1021499392       19.3053785109       -0.0034401363       -0.0004509715        0.0028680658
18
Properties=species:S:1:pos:R:3:forces_ref:R:3 energy_ref=-10341.702411 pbc="T T T" Lattice="19.999988 0.000000 0.000000 0.000000 19.999988 0.000000 0.000000 0.000000 19.999988"
Ar        1.8831388793       17.4395196213        3.4618379398        0.0258264763       -0.0365708602        0.0496258947
Ar        3.2651180568        1.0516993741        3.2123780882        0.0458214330        0.0150954621        0.0452457630
Ar        4.3736873971        1.6594590124       19.5488583660        0.0616092933        0.0237253706       -0.0065347163
Ar        2.1376087279       15.8149205881       19.9524781257        0.0295273225       -0.0595912342       -0.0006229783
Ar        3.6768278118       18.4229490360       17.5341695649        0.0515956170       -0.0219047723       -0.0352277158
Ar       15.5902007219        1.6134890398       18.9332887323       -0.0719479570        0.0266685126       -0.0176097441
Ar       16.2603603230       19.5788983481        1.9699088277       -0.0583329362       -0.0188238191        0.0502889822
Ar       17.5817495366        3.0326681952        1.7313989696       -0.0287148538        0.0588605266        0.0449932806
Ar       16.5036601782       18.0254992725       18.6144289221       -0.0532462653       -0.0537059786       -0.0247818370
Ar       18.6417089058        3.6138078493       18.2285091517       -0.0049010373        0.0718659388       -0.0335228171
Ar       17.9754093024        0.5192196910       16.3021302982       -0.0202358691        0.0023685004       -0.0770855358
Ar       19.6925382804        0.3332198017        3.1219481420       -0.0188896394        0.0124917057        0.0796432694
Ar       19.0287086755       17.2500197341        1.2026492843       -0.0363602868       -0.0684152610        0.0293771700
Ar        1.1588893103        2.8177483231        0.8181395131        0.0194583674        0.0781024072        0.0186741809
Ar        0.0847699496       17.8290293895       17.7126694587       -0.0086059972       -0.0531411072       -0.0628189974
Ar        1.4012891661        1.2700592442       17.4750296001        0.0264083170        0.0376813197       -0.0692665533
Ar        1.9530888377       19.2853785228        0.4724597188        0.0373038817       -0.0135486863        0.0089770074
Ar       18.7911788169        0.4422897368       19.7075882715        0.0036841340       -0.0011580250        0.0006450898
19
Properties=species:S:1:pos:R:3:forces_ref:R:3 energy_ref=-10916.262379 pbc="T T T" Lattice="19.999988 0.000000 0.000000 0.000000 19.999988 0.000000 0.000000 0.000000 19.999988"
Ar       18.8550987788        1.7329289687       15.2627909167       -0.0167365974        0.0252940008       -0.0691372268
Ar        1.1475593171       18.2658091295        4.7364171812        0.0163910411       -0.0248425150        0.0692135886
Ar        1.6689890067        3.1474981268       17.2908497098        0.0440905662        0.0566396076       -0.0276321622
Ar        1.9093488637       19.6800482879       15.9645704991        0.0492466569       -0.0181129090       -0.0567666201
Ar       18.1535091964        3.7303877799       18.3523390780       -0.0325141733        0.0694606716       -0.0039864958
Ar       18.5407589659       18.1240692139       16.2055403557       -0.0241819986       -0.0527145611       -0.0511562154
Ar       16.2197003472        0.6240596286       17.6868694741       -0.0747028943        0.0021867234       -0.0194467975
Ar        3.0727781713        1.0253293898        3.0889581617        0.0596012615        0.0336858251        0.0358789763
Ar        3.3123380287       17.5595295499        1.7628989509        0.0641603420       -0.0419593786        0.0069903159
Ar       19.5573783609        1.6072490435        4.1544175276       -0.0173927430        0.0468365046        0.0588651546
Ar       19.9438381309       16.0005804776        2.0106488034       -0.0085900564       -0.0757117953        0.0118545863
Ar       17.6209595133       18.5030889883        3.4835179269       -0.0592500488       -0.0208529339        0.0447508256
Ar        3.0560481813        0.4329697423       19.4189384433        0.0811568780        0.0118854396       -0.0153595144
Ar        0.7509195531        2.9191982627        0.8864294725        0.0202950045        0.0772470011        0.0236868041
Ar        1.1360893239       17.3481796756       18.7554288381        0.0300358867       -0.0702620846       -0.0328813268
Ar       17.4079296401        1.3717791836        1.1283293285       -0.0686836842        0.0357851310        0.0301875818
Ar       17.6466094980       17.9272493310       19.8108082101       -0.0624042784       -0.0546349183       -0.0051740884
Ar        0.3748197769       19.4332884347        1.5498290777       -0.0004054630        0.0000020569       -0.0008384368
Ar       19.6251983205        0.5666396628       18.4503190197       -0.0001156997        0.0000686485        0.0009510511
20
Properties=species:S:1:pos:R:3:forces_ref:R:3 energy_ref=-11490.809762 pbc="T T T" Lattice="19.999988 0.000000 0.000000 0.000000 19.999988 0.000000 0.000000 0.000000 19.999988"
Ar        3.4316079578       17.3695996629       17.1408097990        0.0412525823       -0.0314754475       -0.0342884917
Ar        1.8603088929       18.0480992591        4.4128373738        0.0298991040       -0.0307334271        0.0587936780
Ar       17.8623693696        2.1645087118       15.8190405857       -0.0261926014        0.0273760803       -0.0619389087
Ar       18.1706591862       18.7535688393        4.0822175706       -0.0482662952       -0.0164548045        0.0567360239
Ar       15.7043606539        1.2891792328       18.7906588172       -0.0751662071        0.0122443656       -0.0024605459
Ar       18.0828992384        4.1207775476       19.0404486685       -0.0250782852        0.0723817022        0.0032743001
Ar        0.5464196748        1.5818790586        4.3316874221        0.0025621045        0.0440342590        0.0622885788
Ar       19.7630682385       16.0859904268        2.0571287757       -0.0138862722       -0.0758912583        0.0122369094
Ar        3.6180278468        0.6752795981        2.4619185348        0.0708269560        0.0244918165        0.0213856665
Ar       17.3018997032       18.6131889228       16.7751300167       -0.0409322228       -0.0459867549       -0.0471774329
Ar        1.1628793079        3.2095580899       17.1806197754        0.0416647302        0.0531825020       -0.0383696041
Ar        3.1309281367       17.2932697083        0.8699794823        0.0574448771       -0.0491677240        0.0120255647
Ar        0.7992995243       19.6939682796       15.8574305628        0.0160966498       -0.0072165729       -0.0737546714
Ar       17.7367994444        1.7347089676        1.8858688777       -0.0565455052        0.0432598427        0.0471362953
Ar       17.2254797487       18.3742090650        0.5081696976       -0.0681334681       -0.0478148094        0.0111614169
Ar        1.0608093687        2.9400882503        0.9109094579        0.0339827875        0.0738536589        0.0217947291
Ar        0.2084598759       17.4050296418       18.6566088970       -0.0097275125       -0.0699671790       -0.0277807720
Ar        2.6973383947        0.3679797810       18.9179487414        0.0688330653        0.0243367790       -0.0191935438
Ar       19.1628085957        0.8138595157       18.7456088440        0.0016424208       -0.0007721023       -0.0012588122
Ar        0.4734697182       19.4651284158        1.5548790746       -0.0002766507        0.0003195881       -0.0006098657
21
Properties=species:S:1:pos:R:3:forces_ref:R:3 energy_ref=-12065.356676 pbc="T T T" Lattice="19.999988 0.000000 0.000000 0.000000 19.999988 0.000000 0.000000 0.000000 19.999988"
Ar       17.1350898025       17.1148498145        3.1859581040       -0.0343108603       -0.0321866147        0.0400274515
Ar       19.6662782961        3.2051080926        4.0371075974       -0.0058819132        0.0358836042        0.0496580335
Ar        4.4006373811       17.9278393307        1.7405789641        0.0567216258       -0.0277699733        0.0300274021
Ar       15.8215705842        2.0510787793       17.7627294289       -0.0603764492        0.0280800484       -0.0245596936
Ar        4.1064675561       18.5756889451       17.9730593038        0.0579405859       -0.0175171844       -0.0457347868
Ar       18.7801688234        1.1356793241       15.5025907740       -0.0043652193        0.0125593258       -0.0738444029
Ar        2.0889287568       15.9222705242       19.5720283522        0.0142732233       -0.0739439046       -0.0139083837
Ar       19.0433286668        3.9636276411       17.8685493659        0.0032809850        0.0723608762       -0.0252852590
Ar       16.7649600227       18.4813990012       17.1014398225       -0.0456890212       -0.0448346435       -0.0412304708
Ar        4.3687274001        1.4054891636        0.3392797981        0.0630719940        0.0428978314        0.0024500044
Ar        0.8897994705       17.1077098187        2.9119882670        0.0131373098       -0.0465112600        0.0600103241
Ar       17.3434996784        3.0684181739        1.0807593568       -0.0522209093        0.0506440516        0.0266867675
Ar       15.8684305563       19.5204683828        0.5844696522       -0.0745483710       -0.0041050236        0.0192537076
Ar        2.3644685928        0.6562496094        3.4084779715        0.0360468693        0.0079639927        0.0678473043
Ar        0.5223296891       18.2105091624       17.0189498716        0.0090541405       -0.0478608322       -0.0690636933
Ar        1.9099788633        1.5477590789       17.4858195937        0.0465853078        0.0427067984       -0.0569841354
Ar        0.9889094115        2.7915683387        0.7594995480        0.0306506375        0.0714231948        0.0077415923
Ar       18.6812288823       17.2398097401       19.9834181073       -0.0284664852       -0.0713794861       -0.0123472097
Ar       18.9116787452        0.1086499353        2.4591285365       -0.0252135252        0.0022116631        0.0582180079
Ar        1.5799990597       19.3065285102        0.2647398424       -0.0003144459       -0.0002961911        0.0005887827
Ar       18.7634288334        0.6591496077       18.9592987168        0.0006247781       -0.0003257588        0.0004486575
