2
Properties=species:S:1:pos:R:3:forces_ref:R:3 energy_ref=-1144.511810 pbc="T T T" Lattice="19.999988 0.000000 0.000000 0.000000 19.999988 0.000000 0.000000 0.000000 19.999988"
Ar        0.0000000000        0.0000000000        0.9999994049        0.0000000000        0.0000000000       14.8623975211
Ar        0.0000000000        0.0000000000       18.9999886926        0.0000000000        0.0000000000      -14.8623975211
2
Properties=species:S:1:pos:R:3:forces_ref:R:3 energy_ref=-1145.075235 pbc="T T T" Lattice="19.999988 0.000000 0.000000 0.000000 19.999988 0.000000 0.000000 0.000000 19.999988"
Ar        0.0000000000        0.0000000000        1.0199993930        0.0000000000        0.0000000000       13.2592680305
Ar        0.0000000000        0.0000000000       18.9799887045        0.0000000000        0.0000000000      -13.2592680305
2
Properties=species:S:1:pos:R:3:forces_ref:R:3 energy_ref=-1145.573851 pbc="T T T" Lattice="19.999988 0.000000 0.000000 0.000000 19.999988 0.000000 0.000000 0.000000 19.999988"
Ar        0.0000000000        0.0000000000        1.0399993811        0.0000000000        0.0000000000       11.6968005398
Ar        0.0000000000        0.0000000000       18.9599887164        0.0000000000        0.0000000000      -11.6968005398
2
Properties=species:S:1:pos:R:3:forces_ref:R:3 energy_ref=-1146.013059 pbc="T T T" Lattice="19.999988 0.000000 0.000000 0.000000 19.999988 0.000000 0.000000 0.000000 19.999988"
Ar        0.0000000000        0.0000000000        1.0599993692        0.0000000000        0.0000000000       10.2914863435
Ar        0.0000000000        0.0000000000       18.9399887283        0.0000000000        0.0000000000      -10.2914863435
2
Properties=species:S:1:pos:R:3:forces_ref:R:3 energy_ref=-1146.399146 pbc="T T T" Lattice="19.999988 0.000000 0.000000 0.000000 19.999988 0.000000 0.000000 0.000000 19.999988"
Ar        0.0000000000        0.0000000000        1.0799993573        0.0000000000        0.0000000000        9.0393597718
Ar        0.0000000000        0.0000000000       18.9199887402        0.0000000000        0.0000000000       -9.0393597718
2
Properties=species:S:1:pos:R:3:forces_ref:R:3 energy_ref=-1146.738105 pbc="T T T" Lattice="19.999988 0.000000 0.000000 0.000000 19.999988 0.000000 0.000000 0.000000 19.999988"
Ar        0.0000000000        0.0000000000        1.0999993454        0.0000000000        0.0000000000        7.9299055261
Ar        0.0000000000        0.0000000000       18.8999887521        0.0000000000        0.0000000000       -7.9299055261
2
Properties=species:S:1:pos:R:3:forces_ref:R:3 energy_ref=-1147.035348 pbc="T T T" Lattice="19.999988 0.000000 0.000000 0.000000 19.999988 0.000000 0.000000 0.000000 19.999988"
Ar        0.0000000000        0.0000000000        1.1199993335        0.0000000000        0.0000000000        6.9503472795
Ar        0.0000000000        0.0000000000       18.8799887640        0.0000000000        0.0000000000       -6.9503472795
2
Properties=species:S:1:pos:R:3:forces_ref:R:3 energy_ref=-1147.295683 pbc="T T T" Lattice="19.999988 0.000000 0.000000 0.000000 19.999988 0.000000 0.000000 0.000000 19.999988"
Ar        0.0000000000        0.0000000000        1.1399993216        0.0000000000        0.0000000000        6.0845094493
Ar        0.0000000000        0.0000000000       18.8599887759        0.0000000000        0.0000000000       -6.0845094493
2
Properties=species:S:1:pos:R:3:forces_ref:R:3 energy_ref=-1147.523514 pbc="T T T" Lattice="19.999988 0.000000 0.000000 0.000000 19.999988 0.000000 0.000000 0.000000 19.999988"
Ar        0.0000000000        0.0000000000        1.1599993097        0.0000000000        0.0000000000        5.3222014673
Ar        0.0000000000        0.0000000000       18.8399887878        0.0000000000        0.0000000000       -5.3222014673
2
Properties=species:S:1:pos:R:3:forces_ref:R:3 energy_ref=-1147.722719 pbc="T T T" Lattice="19.999988 0.000000 0.000000 0.000000 19.999988 0.000000 0.000000 0.000000 19.999988"
Ar        0.0000000000        0.0000000000        1.1799992978        0.0000000000        0.0000000000        4.6515013843
Ar        0.0000000000        0.0000000000       18.8199887997        0.0000000000        0.0000000000       -4.6515013843
2
Properties=species:S:1:pos:R:3:forces_ref:R:3 energy_ref=-1147.896688 pbc="T T T" Lattice="19.999988 0.000000 0.000000 0.000000 19.999988 0.000000 0.000000 0.000000 19.999988"
Ar        0.0000000000        0.0000000000        1.1999992858        0.0000000000        0.0000000000        4.0601846322
Ar        0.0000000000        0.0000000000       18.7999888116        0.0000000000        0.0000000000       -4.0601846322
2
Properties=species:S:1:pos:R:3:forces_ref:R:3 energy_ref=-1148.048498 pbc="T T T" Lattice="19.999988 0.000000 0.000000 0.000000 19.999988 0.000000 0.000000 0.000000 19.999988"
Ar        0.0000000000        0.0000000000        1.2199992739        0.0000000000        0.0000000000        3.5419754048
Ar        0.0000000000        0.0000000000       18.7799888235        0.0000000000        0.0000000000       -3.5419754048
2
Properties=species:S:1:pos:R:3:forces_ref:R:3 energy_ref=-1148.180872 pbc="T T T" Lattice="19.999988 0.000000 0.000000 0.000000 19.999988 0.000000 0.000000 0.000000 19.999988"
Ar        0.0000000000        0.0000000000        1.2399992620        0.0000000000        0.0000000000        3.0870356321
Ar        0.0000000000        0.0000000000       18.7599888354        0.0000000000        0.0000000000       -3.0870356321
2
Properties=species:S:1:pos:R:3:forces_ref:R:3 energy_ref=-1148.296173 pbc="T T T" Lattice="19.999988 0.000000 0.000000 0.000000 19.999988 0.000000 0.000000 0.000000 19.999988"
Ar        0.0000000000        0.0000000000        1.2599992501        0.0000000000        0.0000000000        2.6859532760
Ar        0.0000000000        0.0000000000       18.7399888473        0.0000000000        0.0000000000       -2.6859532760
2
Properties=species:S:1:pos:R:3:forces_ref:R:3 energy_ref=-1148.396471 pbc="T T T" Lattice="19.999988 0.000000 0.000000 0.000000 19.999988 0.000000 0.000000 0.000000 19.999988"
Ar        0.0000000000        0.0000000000        1.2799992382        0.0000000000        0.0000000000        2.3364747643
Ar        0.0000000000        0.0000000000       18.7199888592        0.0000000000        0.0000000000       -2.3364747643
2
Properties=species:S:1:pos:R:3:forces_ref:R:3 energy_ref=-1148.483683 pbc="T T T" Lattice="19.999988 0.000000 0.000000 0.000000 19.999988 0.000000 0.000000 0.000000 19.999988"
Ar        0.0000000000        0.0000000000        1.2999992263        0.0000000000        0.0000000000        2.0304473855
Ar        0.0000000000        0.0000000000       18.6999888711        0.0000000000        0.0000000000       -2.0304473855
2
Properties=species:S:1:pos:R:3:forces_ref:R:3 energy_ref=-1148.559441 pbc="T T T" Lattice="19.999988 0.000000 0.000000 0.000000 19.999988 0.000000 0.000000 0.000000 19.999988"
Ar        0.0000000000        0.0000000000        1.3199992144        0.0000000000        0.0000000000        1.7620961842
Ar        0.0000000000        0.0000000000       18.6799888830        0.0000000000        0.0000000000       -1.7620961842
2
Properties=species:S:1:pos:R:3:forces_ref:R:3 energy_ref=-1148.625111 pbc="T T T" Lattice="19.999988 0.000000 0.000000 0.000000 19.999988 0.000000 0.000000 0.000000 19.999988"
Ar        0.0000000000        0.0000000000        1.3399992025        0.0000000000        0.0000000000        1.5267042141
Ar        0.0000000000        0.0000000000       18.6599888949        0.0000000000        0.0000000000       -1.5267042141
2
Properties=species:S:1:pos:R:3:forces_ref:R:3 energy_ref=-1148.682024 pbc="T T T" Lattice="19.999988 0.000000 0.000000 0.000000 19.999988 0.000000 0.000000 0.000000 19.999988"
Ar        0.0000000000        0.0000000000        1.3599991906        0.0000000000        0.0000000000        1.3231818417
Ar        0.0000000000        0.0000000000       18.6399889068        0.0000000000        0.0000000000       -1.3231818417
2
Properties=species:S:1:pos:R:3:forces_ref:R:3 energy_ref=-1148.731299 pbc="T T T" Lattice="19.999988 0.000000 0.000000 0.000000 19.999988 0.000000 0.000000 0.000000 19.999988"
Ar        0.0000000000        0.0000000000        1.3799991787        0.0000000000        0.0000000000        1.1448819933
Ar        0.0000000000        0.0000000000       18.6199889187        0.0000000000        0.0000000000       -1.1448819933
2
Properties=species:S:1:pos:R:3:forces_ref:R:3 energy_ref=-1148.773866 pbc="T T T" Lattice="19.999988 0.000000 0.000000 0.000000 19.999988 0.000000 0.000000 0.000000 19.999988"
Ar        0.0000000000        0.0000000000        1.3999991668        0.0000000000        0.0000000000        0.9868275272
Ar        0.0000000000        0.0000000000       18.5999889307        0.0000000000        0.0000000000       -0.9868275272
2
Properties=species:S:1:pos:R:3:forces_ref:R:3 energy_ref=-1148.810579 pbc="T T T" Lattice="19.999988 0.000000 0.000000 0.000000 19.999988 0.000000 0.000000 0.000000 19.999988"
Ar        0.0000000000        0.0000000000        1.4199991549        0.0000000000        0.0000000000        0.8515630643
Ar        0.0000000000        0.0000000000       18.5799889426        0.0000000000        0.0000000000       -0.8515630643
2
Properties=species:S:1:pos:R:3:forces_ref:R:3 energy_ref=-1148.842236 pbc="T T T" Lattice="19.999988 0.000000 0.000000 0.000000 19.999988 0.000000 0.000000 0.000000 19.999988"
Ar        0.0000000000        0.0000000000        1.4399991430        0.0000000000        0.0000000000        0.7332177471
Ar        0.0000000000        0.0000000000       18.5599889545        0.0000000000        0.0000000000       -0.7332177471
2
Properties=species:S:1:pos:R:3:forces_ref:R:3 energy_ref=-1148.869483 pbc="T T T" Lattice="19.999988 0.000000 0.000000 0.000000 19.999988 0.000000 0.000000 0.000000 19.999988"
Ar        0.0000000000        0.0000000000        1.4599991311        0.0000000000        0.0000000000        0.6298172253
Ar        0.0000000000        0.0000000000       18.5399889664        0.0000000000        0.0000000000       -0.6298172253
2
Properties=species:S:1:pos:R:3:forces_ref:R:3 energy_ref=-1148.892828 pbc="T T T" Lattice="19.999988 0.000000 0.000000 0.000000 19.999988 0.000000 0.000000 0.000000 19.999988"
Ar        0.0000000000        0.0000000000        1.4799991192        0.0000000000        0.0000000000        0.5401656789
Ar        0.0000000000        0.0000000000       18.5199889783        0.0000000000        0.0000000000       -0.5401656789
2
Properties=species:S:1:pos:R:3:forces_ref:R:3 energy_ref=-1148.912846 pbc="T T T" Lattice="19.999988 0.000000 0.000000 0.000000 19.999988 0.000000 0.000000 0.000000 19.999988"
Ar        0.0000000000        0.0000000000        1.4999991073        0.0000000000        0.0000000000        0.4622393923
Ar        0.0000000000        0.0000000000       18.4999889902        0.0000000000        0.0000000000       -0.4622393923
2
Properties=species:S:1:pos:R:3:forces_ref:R:3 energy_ref=-1148.929985 pbc="T T T" Lattice="19.999988 0.000000 0.000000 0.000000 19.999988 0.000000 0.000000 0.000000 19.999988"
Ar        0.0000000000        0.0000000000        1.5199990954        0.0000000000        0.0000000000        0.3952618923
Ar        0.0000000000        0.0000000000       18.4799890021        0.0000000000        0.0000000000       -0.3952618923
2
Properties=species:S:1:pos:R:3:forces_ref:R:3 energy_ref=-1148.944570 pbc="T T T" Lattice="19.999988 0.000000 0.000000 0.000000 19.999988 0.000000 0.000000 0.000000 19.999988"
Ar        0.0000000000        0.0000000000        1.5399990835        0.0000000000        0.0000000000        0.3348121667
Ar        0.0000000000        0.0000000000       18.4599890140        0.0000000000        0.0000000000       -0.3348121667
2
Properties=species:S:1:pos:R:3:forces_ref:R:3 energy_ref=-1148.956954 pbc="T T T" Lattice="19.999988 0.000000 0.000000 0.000000 19.999988 0.000000 0.000000 0.000000 19.999988"
Ar        0.0000000000        0.0000000000        1.5599990716        0.0000000000        0.0000000000        0.2853698488
Ar        0.0000000000        0.0000000000       18.4399890259        0.0000000000        0.0000000000       -0.2853698488
2
Properties=species:S:1:pos:R:3:forces_ref:R:3 energy_ref=-1148.967473 pbc="T T T" Lattice="19.999988 0.000000 0.000000 0.000000 19.999988 0.000000 0.000000 0.000000 19.999988"
Ar        0.0000000000        0.0000000000        1.5799990597        0.0000000000        0.0000000000        0.2419613963
Ar        0.0000000000        0.0000000000       18.4199890378        0.0000000000        0.0000000000       -0.2419613963
2
Properties=species:S:1:pos:R:3:forces_ref:R:3 energy_ref=-1148.976366 pbc="T T T" Lattice="19.999988 0.000000 0.000000 0.000000 19.999988 0.000000 0.000000 0.000000 19.999988"
Ar        0.0000000000        0.0000000000        1.5999990478        0.0000000000        0.0000000000        0.2032295237
Ar        0.0000000000        0.0000000000       18.3999890497        0.0000000000        0.0000000000       -0.2032295237
2
Properties=species:S:1:pos:R:3:forces_ref:R:3 energy_ref=-1148.983793 pbc="T T T" Lattice="19.999988 0.000000 0.000000 0.000000 19.999988 0.000000 0.000000 0.000000 19.999988"
Ar        0.0000000000        0.0000000000        1.6199990359        0.0000000000        0.0000000000        0.1696267453
Ar        0.0000000000        0.0000000000       18.3799890616        0.0000000000        0.0000000000       -0.1696267453
2
Properties=species:S:1:pos:R:3:forces_ref:R:3 energy_ref=-1148.990025 pbc="T T T" Lattice="19.999988 0.000000 0.000000 0.000000 19.999988 0.000000 0.000000 0.000000 19.999988"
Ar        0.0000000000        0.0000000000        1.6399990240        0.0000000000        0.0000000000        0.1422714910
Ar        0.0000000000        0.0000000000       18.3599890735        0.0000000000        0.0000000000       -0.1422714910
2
Properties=species:S:1:pos:R:3:forces_ref:R:3 energy_ref=-1148.995233 pbc="T T T" Lattice="19.999988 0.000000 0.000000 0.000000 19.999988 0.000000 0.000000 0.000000 19.999988"
Ar        0.0000000000        0.0000000000        1.6599990121        0.0000000000        0.0000000000        0.1184160225
Ar        0.0000000000        0.0000000000       18.3399890854        0.0000000000        0.0000000000       -0.1184160225
2
Properties=species:S:1:pos:R:3:forces_ref:R:3 energy_ref=-1148.999499 pbc="T T T" Lattice="19.999988 0.000000 0.000000 0.000000 19.999988 0.000000 0.000000 0.000000 19.999988"
Ar        0.0000000000        0.0000000000        1.6799990002        0.0000000000        0.0000000000        0.0959589772
Ar        0.0000000000        0.0000000000       18.3199890973        0.0000000000        0.0000000000       -0.0959589772
2
Properties=species:S:1:pos:R:3:forces_ref:R:3 energy_ref=-1149.002983 pbc="T T T" Lattice="19.999988 0.000000 0.000000 0.000000 19.999988 0.000000 0.000000 0.000000 19.999988"
Ar        0.0000000000        0.0000000000        1.6999989883        0.0000000000        0.0000000000        0.0786719066
Ar        0.0000000000        0.0000000000       18.2999891092        0.0000000000        0.0000000000       -0.0786719066
2
Properties=species:S:1:pos:R:3:forces_ref:R:3 energy_ref=-1149.005830 pbc="T T T" Lattice="19.999988 0.000000 0.000000 0.000000 19.999988 0.000000 0.000000 0.000000 19.999988"
Ar        0.0000000000        0.0000000000        1.7199989764        0.0000000000        0.0000000000        0.0640155889
Ar        0.0000000000        0.0000000000       18.2799891211        0.0000000000        0.0000000000       -0.0640155889
2
Properties=species:S:1:pos:R:3:forces_ref:R:3 energy_ref=-1149.008114 pbc="T T T" Lattice="19.999988 0.000000 0.000000 0.000000 19.999988 0.000000 0.000000 0.000000 19.999988"
Ar        0.0000000000        0.0000000000        1.7399989645        0.0000000000        0.0000000000        0.0499948480
Ar        0.0000000000        0.0000000000       18.2599891330        0.0000000000        0.0000000000       -0.0499948480
2
Properties=species:S:1:pos:R:3:forces_ref:R:3 energy_ref=-1149.009865 pbc="T T T" Lattice="19.999988 0.000000 0.000000 0.000000 19.999988 0.000000 0.000000 0.000000 19.999988"
Ar        0.0000000000        0.0000000000        1.7599989526        0.0000000000        0.0000000000        0.0386457406
Ar        0.0000000000        0.0000000000       18.2399891449        0.0000000000        0.0000000000       -0.0386457406
2
Properties=species:S:1:pos:R:3:forces_ref:R:3 energy_ref=-1149.011231 pbc="T T T" Lattice="19.999988 0.000000 0.000000 0.000000 19.999988 0.000000 0.000000 0.000000 19.999988"
Ar        0.0000000000        0.0000000000        1.7799989407        0.0000000000        0.0000000000        0.0301688128
Ar        0.0000000000        0.0000000000       18.2199891568        0.0000000000        0.0000000000       -0.0301688128
2
Properties=species:S:1:pos:R:3:forces_ref:R:3 energy_ref=-1149.012274 pbc="T T T" Lattice="19.999988 0.000000 0.000000 0.000000 19.999988 0.000000 0.000000 0.000000 19.999988"
Ar        0.0000000000        0.0000000000        1.7999989288        0.0000000000        0.0000000000        0.0220508110
Ar        0.0000000000        0.0000000000       18.1999891687        0.0000000000        0.0000000000       -0.0220508110
2
Properties=species:S:1:pos:R:3:forces_ref:R:3 energy_ref=-1149.012978 pbc="T T T" Lattice="19.999988 0.000000 0.000000 0.000000 19.999988 0.000000 0.000000 0.000000 19.999988"
Ar        0.0000000000        0.0000000000        1.8199989169        0.0000000000        0.0000000000        0.0137142654
Ar        0.0000000000        0.0000000000       18.1799891806        0.0000000000        0.0000000000       -0.0137142654
2
Properties=species:S:1:pos:R:3:forces_ref:R:3 energy_ref=-1149.013433 pbc="T T T" Lattice="19.999988 0.000000 0.000000 0.000000 19.999988 0.000000 0.000000 0.000000 19.999988"
Ar        0.0000000000        0.0000000000        1.8399989050        0.0000000000        0.0000000000        0.0088363681
Ar        0.0000000000        0.0000000000       18.1599891925        0.0000000000        0.0000000000       -0.0088363681
2
Properties=species:S:1:pos:R:3:forces_ref:R:3 energy_ref=-1149.013708 pbc="T T T" Lattice="19.999988 0.000000 0.000000 0.000000 19.999988 0.000000 0.000000 0.000000 19.999988"
Ar        0.0000000000        0.0000000000        1.8599988931        0.0000000000        0.0000000000        0.0050910418
Ar        0.0000000000        0.0000000000       18.1399892044        0.0000000000        0.0000000000       -0.0050910418
2
Properties=species:S:1:pos:R:3:forces_ref:R:3 energy_ref=-1149.013810 pbc="T T T" Lattice="19.999988 0.000000 0.000000 0.000000 19.999988 0.000000 0.000000 0.000000 19.999988"
Ar        0.0000000000        0.0000000000        1.8799988812        0.0000000000        0.0000000000       -0.0002776792
Ar        0.0000000000        0.0000000000       18.1199892163        0.0000000000        0.0000000000        0.0002776792
2
Properties=species:S:1:pos:R:3:forces_ref:R:3 energy_ref=-1149.013724 pbc="T T T" Lattice="19.999988 0.000000 0.000000 0.000000 19.999988 0.000000 0.000000 0.000000 19.999988"
Ar        0.0000000000        0.0000000000        1.8999988693        0.0000000000        0.0000000000       -0.0033072103
Ar        0.0000000000        0.0000000000       18.0999892282        0.0000000000        0.0000000000        0.0033072103
2
Properties=species:S:1:pos:R:3:forces_ref:R:3 energy_ref=-1149.013548 pbc="T T T" Lattice="19.999988 0.000000 0.000000 0.000000 19.999988 0.000000 0.000000 0.000000 19.999988"
Ar        0.0000000000        0.0000000000        1.9199988574        0.0000000000        0.0000000000       -0.0052905594
Ar        0.0000000000        0.0000000000       18.0799892401        0.0000000000        0.0000000000        0.0052905594
2
Properties=species:S:1:pos:R:3:forces_ref:R:3 energy_ref=-1149.013303 pbc="T T T" Lattice="19.999988 0.000000 0.000000 0.000000 19.999988 0.000000 0.000000 0.000000 19.999988"
Ar        0.0000000000        0.0000000000        1.9399988455        0.0000000000        0.0000000000       -0.0072181156
Ar        0.0000000000        0.0000000000       18.0599892520        0.0000000000        0.0000000000        0.0072181156
2
Properties=species:S:1:pos:R:3:forces_ref:R:3 energy_ref=-1149.012934 pbc="T T T" Lattice="19.999988 0.000000 0.000000 0.000000 19.999988 0.000000 0.000000 0.000000 19.999988"
Ar        0.0000000000        0.0000000000        1.9599988336        0.0000000000        0.0000000000       -0.0101322042
Ar        0.0000000000        0.0000000000       18.0399892639        0.0000000000        0.0000000000        0.0101322042
2
Properties=species:S:1:pos:R:3:forces_ref:R:3 energy_ref=-1149.012509 pbc="T T T" Lattice="19.999988 0.000000 0.000000 0.000000 19.999988 0.000000 0.000000 0.000000 19.999988"
Ar        0.0000000000        0.0000000000        1.9799988216        0.0000000000        0.0000000000       -0.0107904066
Ar        0.0000000000        0.0000000000       18.0199892758        0.0000000000        0.0000000000        0.0107904066
2
Properties=species:S:1:pos:R:3:forces_ref:R:3 energy_ref=-1149.012065 pbc="T T T" Lattice="19.999988 0.000000 0.000000 0.000000 19.999988 0.000000 0.000000 0.000000 19.999988"
Ar        0.0000000000        0.0000000000        1.9999988097        0.0000000000        0.0000000000       -0.0110917400
Ar        0.0000000000        0.0000000000       17.9999892877        0.0000000000        0.0000000000        0.0110917400
2
Properties=species:S:1:pos:R:3:forces_ref:R:3 energy_ref=-1149.011582 pbc="T T T" Lattice="19.999988 0.000000 0.000000 0.000000 19.999988 0.000000 0.000000 0.000000 19.999988"
Ar        0.0000000000        0.0000000000        2.0199987978        0.0000000000        0.0000000000       -0.0132584088
Ar        0.0000000000        0.0000000000       17.9799892996        0.0000000000        0.0000000000        0.0132584088
2
Properties=species:S:1:pos:R:3:forces_ref:R:3 energy_ref=-1149.011033 pbc="T T T" Lattice="19.999988 0.000000 0.000000 0.000000 19.999988 0.000000 0.000000 0.000000 19.999988"
Ar        0.0000000000        0.0000000000        2.0399987859        0.0000000000        0.0000000000       -0.0134414713
Ar        0.0000000000        0.0000000000       17.9599893115        0.0000000000        0.0000000000        0.0134414713
2
Properties=species:S:1:pos:R:3:forces_ref:R:3 energy_ref=-1149.010495 pbc="T T T" Lattice="19.999988 0.000000 0.000000 0.000000 19.999988 0.000000 0.000000 0.000000 19.999988"
Ar        0.0000000000        0.0000000000        2.0599987740        0.0000000000        0.0000000000       -0.0132432393
Ar        0.0000000000        0.0000000000       17.9399893234        0.0000000000        0.0000000000        0.0132432393
2
Properties=species:S:1:pos:R:3:forces_ref:R:3 energy_ref=-1149.009974 pbc="T T T" Lattice="19.999988 0.000000 0.000000 0.000000 19.999988 0.000000 0.000000 0.000000 19.999988"
Ar        0.0000000000        0.0000000000        2.0799987621        0.0000000000        0.0000000000       -0.0134196169
Ar        0.0000000000        0.0000000000       17.9199893353        0.0000000000        0.0000000000        0.0134196169
2
Properties=species:S:1:pos:R:3:forces_ref:R:3 energy_ref=-1149.009399 pbc="T T T" Lattice="19.999988 0.000000 0.000000 0.000000 19.999988 0.000000 0.000000 0.000000 19.999988"
Ar        0.0000000000        0.0000000000        2.0999987502        0.0000000000        0.0000000000       -0.0144580856
Ar        0.0000000000        0.0000000000       17.8999893472        0.0000000000        0.0000000000        0.0144580856
2
Properties=species:S:1:pos:R:3:forces_ref:R:3 energy_ref=-1149.008833 pbc="T T T" Lattice="19.999988 0.000000 0.000000 0.000000 19.999988 0.000000 0.000000 0.000000 19.999988"
Ar        0.0000000000        0.0000000000        2.1199987383        0.0000000000        0.0000000000       -0.0138147955
Ar        0.0000000000        0.0000000000       17.8799893591        0.0000000000        0.0000000000        0.0138147955
2
Properties=species:S:1:pos:R:3:forces_ref:R:3 energy_ref=-1149.008301 pbc="T T T" Lattice="19.999988 0.000000 0.000000 0.000000 19.999988 0.000000 0.000000 0.000000 19.999988"
Ar        0.0000000000        0.0000000000        2.1399987264        0.0000000000        0.0000000000       -0.0129113098
Ar        0.0000000000        0.0000000000       17.8599893710        0.0000000000        0.0000000000        0.0129113098
2
Properties=species:S:1:pos:R:3:forces_ref:R:3 energy_ref=-1149.007768 pbc="T T T" Lattice="19.999988 0.000000 0.000000 0.000000 19.999988 0.000000 0.000000 0.000000 19.999988"
Ar        0.0000000000        0.0000000000        2.1599987145        0.0000000000        0.0000000000       -0.0140582790
Ar        0.0000000000        0.0000000000       17.8399893829        0.0000000000        0.0000000000        0.0140582790
2
Properties=species:S:1:pos:R:3:forces_ref:R:3 energy_ref=-1149.007211 pbc="T T T" Lattice="19.999988 0.000000 0.000000 0.000000 19.999988 0.000000 0.000000 0.000000 19.999988"
Ar        0.0000000000        0.0000000000        2.1799987026        0.0000000000        0.0000000000       -0.0133157444
Ar        0.0000000000        0.0000000000       17.8199893948        0.0000000000        0.0000000000        0.0133157444
2
Properties=species:S:1:pos:R:3:forces_ref:R:3 energy_ref=-1149.006696 pbc="T T T" Lattice="19.999988 0.000000 0.000000 0.000000 19.999988 0.000000 0.000000 0.000000 19.999988"
Ar        0.0000000000        0.0000000000        2.1999986907        0.0000000000        0.0000000000       -0.0124245999
Ar        0.0000000000        0.0000000000       17.7999894068        0.0000000000        0.0000000000        0.0124245999
2
Properties=species:S:1:pos:R:3:forces_ref:R:3 energy_ref=-1149.006219 pbc="T T T" Lattice="19.999988 0.000000 0.000000 0.000000 19.999988 0.000000 0.000000 0.000000 19.999988"
Ar        0.0000000000        0.0000000000        2.2199986788        0.0000000000        0.0000000000       -0.0122132552
Ar        0.0000000000        0.0000000000       17.7799894187        0.0000000000        0.0000000000        0.0122132552
2
Properties=species:S:1:pos:R:3:forces_ref:R:3 energy_ref=-1149.005707 pbc="T T T" Lattice="19.999988 0.000000 0.000000 0.000000 19.999988 0.000000 0.000000 0.000000 19.999988"
Ar        0.0000000000        0.0000000000        2.2399986669        0.0000000000        0.0000000000       -0.0125917217
Ar        0.0000000000        0.0000000000       17.7599894306        0.0000000000        0.0000000000        0.0125917217
2
Properties=species:S:1:pos:R:3:forces_ref:R:3 energy_ref=-1149.005225 pbc="T T T" Lattice="19.999988 0.000000 0.000000 0.000000 19.999988 0.000000 0.000000 0.000000 19.999988"
Ar        0.0000000000        0.0000000000        2.2599986550        0.0000000000        0.0000000000       -0.0115069731
Ar        0.0000000000        0.0000000000       17.7399894425        0.0000000000        0.0000000000        0.0115069731
2
Properties=species:S:1:pos:R:3:forces_ref:R:3 energy_ref=-1149.004790 pbc="T T T" Lattice="19.999988 0.000000 0.000000 0.000000 19.999988 0.000000 0.000000 0.000000 19.999988"
Ar        0.0000000000        0.0000000000        2.2799986431        0.0000000000        0.0000000000       -0.0103258083
Ar        0.0000000000        0.0000000000       17.7199894544        0.0000000000        0.0000000000        0.0103258083
2
Properties=species:S:1:pos:R:3:forces_ref:R:3 energy_ref=-1149.004359 pbc="T T T" Lattice="19.999988 0.000000 0.000000 0.000000 19.999988 0.000000 0.000000 0.000000 19.999988"
Ar        0.0000000000        0.0000000000        2.2999986312        0.0000000000        0.0000000000       -0.0113074555
Ar        0.0000000000        0.0000000000       17.6999894663        0.0000000000        0.0000000000        0.0113074555
2
Properties=species:S:1:pos:R:3:forces_ref:R:3 energy_ref=-1149.003915 pbc="T T T" Lattice="19.999988 0.000000 0.000000 0.000000 19.999988 0.000000 0.000000 0.000000 19.999988"
Ar        0.0000000000        0.0000000000        2.3199986193        0.0000000000        0.0000000000       -0.0103558902
Ar        0.0000000000        0.0000000000       17.6799894782        0.0000000000        0.0000000000        0.0103558902
2
Properties=species:S:1:pos:R:3:forces_ref:R:3 energy_ref=-1149.003519 pbc="T T T" Lattice="19.999988 0.000000 0.000000 0.000000 19.999988 0.000000 0.000000 0.000000 19.999988"
Ar        0.0000000000        0.0000000000        2.3399986074        0.0000000000        0.0000000000       -0.0092806547
Ar        0.0000000000        0.0000000000       17.6599894901        0.0000000000        0.0000000000        0.0092806547
2
Properties=species:S:1:pos:R:3:forces_ref:R:3 energy_ref=-1149.003163 pbc="T T T" Lattice="19.999988 0.000000 0.000000 0.000000 19.999988 0.000000 0.000000 0.000000 19.999988"
Ar        0.0000000000        0.0000000000        2.3599985955        0.0000000000        0.0000000000       -0.0092302611
Ar        0.0000000000        0.0000000000       17.6399895020        0.0000000000        0.0000000000        0.0092302611
2
Properties=species:S:1:pos:R:3:forces_ref:R:3 energy_ref=-1149.002773 pbc="T T T" Lattice="19.999988 0.000000 0.000000 0.000000 19.999988 0.000000 0.000000 0.000000 19.999988"
Ar        0.0000000000        0.0000000000        2.3799985836        0.0000000000        0.0000000000       -0.0093855558
Ar        0.0000000000        0.0000000000       17.6199895139        0.0000000000        0.0000000000        0.0093855558
2
Properties=species:S:1:pos:R:3:forces_ref:R:3 energy_ref=-1149.002418 pbc="T T T" Lattice="19.999988 0.000000 0.000000 0.000000 19.999988 0.000000 0.000000 0.000000 19.999988"
Ar        0.0000000000        0.0000000000        2.3999985717        0.0000000000        0.0000000000       -0.0084098220
Ar        0.0000000000        0.0000000000       17.5999895258        0.0000000000        0.0000000000        0.0084098220
2
Properties=species:S:1:pos:R:3:forces_ref:R:3 energy_ref=-1149.002108 pbc="T T T" Lattice="19.999988 0.000000 0.000000 0.000000 19.999988 0.000000 0.000000 0.000000 19.999988"
Ar        0.0000000000        0.0000000000        2.4199985598        0.0000000000        0.0000000000       -0.0072744228
Ar        0.0000000000        0.0000000000       17.5799895377        0.0000000000        0.0000000000        0.0072744228
2
Properties=species:S:1:pos:R:3:forces_ref:R:3 energy_ref=-1149.001797 pbc="T T T" Lattice="19.999988 0.000000 0.000000 0.000000 19.999988 0.000000 0.000000 0.000000 19.999988"
Ar        0.0000000000        0.0000000000        2.4399985479        0.0000000000        0.0000000000       -0.0082609551
Ar        0.0000000000        0.0000000000       17.5599895496        0.0000000000        0.0000000000        0.0082609551
2
Properties=species:S:1:pos:R:3:forces_ref:R:3 energy_ref=-1149.001476 pbc="T T T" Lattice="19.999988 0.000000 0.000000 0.000000 19.999988 0.000000 0.000000 0.000000 19.999988"
Ar        0.0000000000        0.0000000000        2.4599985360        0.0000000000        0.0000000000       -0.0074040064
Ar        0.0000000000        0.0000000000       17.5399895615        0.0000000000        0.0000000000        0.0074040064
2
Properties=species:S:1:pos:R:3:forces_ref:R:3 energy_ref=-1149.001200 pbc="T T T" Lattice="19.999988 0.000000 0.000000 0.000000 19.999988 0.000000 0.000000 0.000000 19.999988"
Ar        0.0000000000        0.0000000000        2.4799985241        0.0000000000        0.0000000000       -0.0063292852
Ar        0.0000000000        0.0000000000       17.5199895734        0.0000000000        0.0000000000        0.0063292852
2
Properties=species:S:1:pos:R:3:forces_ref:R:3 energy_ref=-1149.000959 pbc="T T T" Lattice="19.999988 0.000000 0.000000 0.000000 19.999988 0.000000 0.000000 0.000000 19.999988"
Ar        0.0000000000        0.0000000000        2.4999985122        0.0000000000        0.0000000000       -0.0064871509
Ar        0.0000000000        0.0000000000       17.4999895853        0.0000000000        0.0000000000        0.0064871509
2
Properties=species:S:1:pos:R:3:forces_ref:R:3 energy_ref=-1149.000680 pbc="T T T" Lattice="19.999988 0.000000 0.000000 0.000000 19.999988 0.000000 0.000000 0.000000 19.999988"
Ar        0.0000000000        0.0000000000        2.5199985003        0.0000000000        0.0000000000       -0.0065727687
Ar        0.0000000000        0.0000000000       17.4799895972        0.0000000000        0.0000000000        0.0065727687
2
Properties=species:S:1:pos:R:3:forces_ref:R:3 energy_ref=-1149.000435 pbc="T T T" Lattice="19.999988 0.000000 0.000000 0.000000 19.999988 0.000000 0.000000 0.000000 19.999988"
Ar        0.0000000000        0.0000000000        2.5399984884        0.0000000000        0.0000000000       -0.0056942226
Ar        0.0000000000        0.0000000000       17.4599896091        0.0000000000        0.0000000000        0.0056942226
2
Properties=species:S:1:pos:R:3:forces_ref:R:3 energy_ref=-1149.000232 pbc="T T T" Lattice="19.999988 0.000000 0.000000 0.000000 19.999988 0.000000 0.000000 0.000000 19.999988"
Ar        0.0000000000        0.0000000000        2.5599984765        0.0000000000        0.0000000000       -0.0047472853
Ar        0.0000000000        0.0000000000       17.4399896210        0.0000000000        0.0000000000        0.0047472853
2
Properties=species:S:1:pos:R:3:forces_ref:R:3 energy_ref=-1149.000018 pbc="T T T" Lattice="19.999988 0.000000 0.000000 0.000000 19.999988 0.000000 0.000000 0.000000 19.999988"
Ar        0.0000000000        0.0000000000        2.5799984646        0.0000000000        0.0000000000       -0.0058016948
Ar        0.0000000000        0.0000000000       17.4199896329        0.0000000000        0.0000000000        0.0058016948
2
Properties=species:S:1:pos:R:3:forces_ref:R:3 energy_ref=-1148.999796 pbc="T T T" Lattice="19.999988 0.000000 0.000000 0.000000 19.999988 0.000000 0.000000 0.000000 19.999988"
Ar        0.0000000000        0.0000000000        2.5999984527        0.0000000000        0.0000000000       -0.0049648006
Ar        0.0000000000        0.0000000000       17.3999896448        0.0000000000        0.0000000000        0.0049648006
2
Properties=species:S:1:pos:R:3:forces_ref:R:3 energy_ref=-1148.999614 pbc="T T T" Lattice="19.999988 0.000000 0.000000 0.000000 19.999988 0.000000 0.000000 0.000000 19.999988"
Ar        0.0000000000        0.0000000000        2.6199984408        0.0000000000        0.0000000000       -0.0040556585
Ar        0.0000000000        0.0000000000       17.3799896567        0.0000000000        0.0000000000        0.0040556585
2
Properties=species:S:1:pos:R:3:forces_ref:R:3 energy_ref=-1148.999461 pbc="T T T" Lattice="19.999988 0.000000 0.000000 0.000000 19.999988 0.000000 0.000000 0.000000 19.999988"
Ar        0.0000000000        0.0000000000        2.6399984289        0.0000000000        0.0000000000       -0.0044577790
Ar        0.0000000000        0.0000000000       17.3599896686        0.0000000000        0.0000000000        0.0044577790
2
Properties=species:S:1:pos:R:3:forces_ref:R:3 energy_ref=-1148.999266 pbc="T T T" Lattice="19.999988 0.000000 0.000000 0.000000 19.999988 0.000000 0.000000 0.000000 19.999988"
Ar        0.0000000000        0.0000000000        2.6599984170        0.0000000000        0.0000000000       -0.0045482819
Ar        0.0000000000        0.0000000000       17.3399896805        0.0000000000        0.0000000000        0.0045482819
2
Properties=species:S:1:pos:R:3:forces_ref:R:3 energy_ref=-1148.999103 pbc="T T T" Lattice="19.999988 0.000000 0.000000 0.000000 19.999988 0.000000 0.000000 0.000000 19.999988"
Ar        0.0000000000        0.0000000000        2.6799984051        0.0000000000        0.0000000000       -0.0036777063
Ar        0.0000000000        0.0000000000       17.3199896924        0.0000000000        0.0000000000        0.0036777063
2
Properties=species:S:1:pos:R:3:forces_ref:R:3 energy_ref=-1148.998979 pbc="T T T" Lattice="19.999988 0.000000 0.000000 0.000000 19.999988 0.000000 0.000000 0.000000 19.999988"
Ar        0.0000000000        0.0000000000        2.6999983932        0.0000000000        0.0000000000       -0.0028223002
Ar        0.0000000000        0.0000000000       17.2999897043        0.0000000000        0.0000000000        0.0028223002
2
Properties=species:S:1:pos:R:3:forces_ref:R:3 energy_ref=-1148.998834 pbc="T T T" Lattice="19.999988 0.000000 0.000000 0.000000 19.999988 0.000000 0.000000 0.000000 19.999988"
Ar        0.0000000000        0.0000000000        2.7199983813        0.0000000000        0.0000000000       -0.0042243228
Ar        0.0000000000        0.0000000000       17.2799897162        0.0000000000        0.0000000000        0.0042243228
2
Properties=species:S:1:pos:R:3:forces_ref:R:3 energy_ref=-1148.998683 pbc="T T T" Lattice="19.999988 0.000000 0.000000 0.000000 19.999988 0.000000 0.000000 0.000000 19.999988"
Ar        0.0000000000        0.0000000000        2.7399983694        0.0000000000        0.0000000000       -0.0032629873
Ar        0.0000000000        0.0000000000       17.2599897281        0.0000000000        0.0000000000        0.0032629873
2
Properties=species:S:1:pos:R:3:forces_ref:R:3 energy_ref=-1148.998569 pbc="T T T" Lattice="19.999988 0.000000 0.000000 0.000000 19.999988 0.000000 0.000000 0.000000 19.999988"
Ar        0.0000000000        0.0000000000        2.7599983575        0.0000000000        0.0000000000       -0.0023571876
Ar        0.0000000000        0.0000000000       17.2399897400        0.0000000000        0.0000000000        0.0023571876
2
Properties=species:S:1:pos:R:3:forces_ref:R:3 energy_ref=-1148.998476 pbc="T T T" Lattice="19.999988 0.000000 0.000000 0.000000 19.999988 0.000000 0.000000 0.000000 19.999988"
Ar        0.0000000000        0.0000000000        2.7799983455        0.0000000000        0.0000000000       -0.0030824958
Ar        0.0000000000        0.0000000000       17.2199897519        0.0000000000        0.0000000000        0.0030824958
2
Properties=species:S:1:pos:R:3:forces_ref:R:3 energy_ref=-1148.998338 pbc="T T T" Lattice="19.999988 0.000000 0.000000 0.000000 19.999988 0.000000 0.000000 0.000000 19.999988"
Ar        0.0000000000        0.0000000000        2.7999983336        0.0000000000        0.0000000000       -0.0030814674
Ar        0.0000000000        0.0000000000       17.1999897638        0.0000000000        0.0000000000        0.0030814674
2
Properties=species:S:1:pos:R:3:forces_ref:R:3 energy_ref=-1148.998233 pbc="T T T" Lattice="19.999988 0.000000 0.000000 0.000000 19.999988 0.000000 0.000000 0.000000 19.999988"
Ar        0.0000000000        0.0000000000        2.8199983217        0.0000000000        0.0000000000       -0.0023013946
Ar        0.0000000000        0.0000000000       17.1799897757        0.0000000000        0.0000000000        0.0023013946
2
Properties=species:S:1:pos:R:3:forces_ref:R:3 energy_ref=-1148.998162 pbc="T T T" Lattice="19.999988 0.000000 0.000000 0.000000 19.999988 0.000000 0.000000 0.000000 19.999988"
Ar        0.0000000000        0.0000000000        2.8399983098        0.0000000000        0.0000000000       -0.0016455062
Ar        0.0000000000        0.0000000000       17.1599897876        0.0000000000        0.0000000000        0.0016455062
2
Properties=species:S:1:pos:R:3:forces_ref:R:3 energy_ref=-1148.998062 pbc="T T T" Lattice="19.999988 0.000000 0.000000 0.000000 19.999988 0.000000 0.000000 0.000000 19.999988"
Ar        0.0000000000        0.0000000000        2.8599982979        0.0000000000        0.0000000000       -0.0030552421
Ar        0.0000000000        0.0000000000       17.1399897995        0.0000000000        0.0000000000        0.0030552421
2
Properties=species:S:1:pos:R:3:forces_ref:R:3 energy_ref=-1148.997959 pbc="T T T" Lattice="19.999988 0.000000 0.000000 0.000000 19.999988 0.000000 0.000000 0.000000 19.999988"
Ar        0.0000000000        0.0000000000        2.8799982860        0.0000000000        0.0000000000       -0.0021129328
Ar        0.0000000000        0.0000000000       17.1199898114        0.0000000000        0.0000000000        0.0021129328
2
Properties=species:S:1:pos:R:3:forces_ref:R:3 energy_ref=-1148.997891 pbc="T T T" Lattice="19.999988 0.000000 0.000000 0.000000 19.999988 0.000000 0.000000 0.000000 19.999988"
Ar        0.0000000000        0.0000000000        2.8999982741        0.0000000000        0.0000000000       -0.0012035335
Ar        0.0000000000        0.0000000000       17.0999898233        0.0000000000        0.0000000000        0.0012035335
2
Properties=species:S:1:pos:R:3:forces_ref:R:3 energy_ref=-1148.997836 pbc="T T T" Lattice="19.999988 0.000000 0.000000 0.000000 19.999988 0.000000 0.000000 0.000000 19.999988"
Ar        0.0000000000        0.0000000000        2.9199982622        0.0000000000        0.0000000000       -0.0022211762
Ar        0.0000000000        0.0000000000       17.0799898352        0.0000000000        0.0000000000        0.0022211762
2
Properties=species:S:1:pos:R:3:forces_ref:R:3 energy_ref=-1148.997738 pbc="T T T" Lattice="19.999988 0.000000 0.000000 0.000000 19.999988 0.000000 0.000000 0.000000 19.999988"
Ar        0.0000000000        0.0000000000        2.9399982503        0.0000000000        0.0000000000       -0.0020985346
Ar        0.0000000000        0.0000000000       17.0599898471        0.0000000000        0.0000000000        0.0020985346
2
Properties=species:S:1:pos:R:3:forces_ref:R:3 energy_ref=-1148.997669 pbc="T T T" Lattice="19.999988 0.000000 0.000000 0.000000 19.999988 0.000000 0.000000 0.000000 19.999988"
Ar        0.0000000000        0.0000000000        2.9599982384        0.0000000000        0.0000000000       -0.0013747690
Ar        0.0000000000        0.0000000000       17.0399898590        0.0000000000        0.0000000000        0.0013747690
2
Properties=species:S:1:pos:R:3:forces_ref:R:3 energy_ref=-1148.997634 pbc="T T T" Lattice="19.999988 0.000000 0.000000 0.000000 19.999988 0.000000 0.000000 0.000000 19.999988"
Ar        0.0000000000        0.0000000000        2.9799982265        0.0000000000        0.0000000000       -0.0008852309
Ar        0.0000000000        0.0000000000       17.0199898709        0.0000000000        0.0000000000        0.0008852309
2
Properties=species:S:1:pos:R:3:forces_ref:R:3 energy_ref=-1148.997562 pbc="T T T" Lattice="19.999988 0.000000 0.000000 0.000000 19.999988 0.000000 0.000000 0.000000 19.999988"
Ar        0.0000000000        0.0000000000        2.9999982146        0.0000000000        0.0000000000       -0.0022512581
Ar        0.0000000000        0.0000000000       16.9999898829        0.0000000000        0.0000000000        0.0022512581
2
Properties=species:S:1:pos:R:3:forces_ref:R:3 energy_ref=-1148.997490 pbc="T T T" Lattice="19.999988 0.000000 0.000000 0.000000 19.999988 0.000000 0.000000 0.000000 19.999988"
Ar        0.0000000000        0.0000000000        3.0199982027        0.0000000000        0.0000000000       -0.0013837678
Ar        0.0000000000        0.0000000000       16.9799898948        0.0000000000        0.0000000000        0.0013837678
2
Properties=species:S:1:pos:R:3:forces_ref:R:3 energy_ref=-1148.997450 pbc="T T T" Lattice="19.999988 0.000000 0.000000 0.000000 19.999988 0.000000 0.000000 0.000000 19.999988"
Ar        0.0000000000        0.0000000000        3.0399981908        0.0000000000        0.0000000000       -0.0005234766
Ar        0.0000000000        0.0000000000       16.9599899067        0.0000000000        0.0000000000        0.0005234766
2
Properties=species:S:1:pos:R:3:forces_ref:R:3 energy_ref=-1148.997419 pbc="T T T" Lattice="19.999988 0.000000 0.000000 0.000000 19.999988 0.000000 0.000000 0.000000 19.999988"
Ar        0.0000000000        0.0000000000        3.0599981789        0.0000000000        0.0000000000       -0.0017156973
Ar        0.0000000000        0.0000000000       16.9399899186        0.0000000000        0.0000000000        0.0017156973
2
Properties=species:S:1:pos:R:3:forces_ref:R:3 energy_ref=-1148.997345 pbc="T T T" Lattice="19.999988 0.000000 0.000000 0.000000 19.999988 0.000000 0.000000 0.000000 19.999988"
Ar        0.0000000000        0.0000000000        3.0799981670        0.0000000000        0.0000000000       -0.0014722138
Ar        0.0000000000        0.0000000000       16.9199899305        0.0000000000        0.0000000000        0.0014722138
2
Properties=species:S:1:pos:R:3:forces_ref:R:3 energy_ref=-1148.997301 pbc="T T T" Lattice="19.999988 0.000000 0.000000 0.000000 19.999988 0.000000 0.000000 0.000000 19.999988"
Ar        0.0000000000        0.0000000000        3.0999981551        0.0000000000        0.0000000000       -0.0007831581
Ar        0.0000000000        0.0000000000       16.8999899424        0.0000000000        0.0000000000        0.0007831581
2
Properties=species:S:1:pos:R:3:forces_ref:R:3 energy_ref=-1148.997288 pbc="T T T" Lattice="19.999988 0.000000 0.000000 0.000000 19.999988 0.000000 0.000000 0.000000 19.999988"
Ar        0.0000000000        0.0000000000        3.1199981432        0.0000000000        0.0000000000       -0.0005113925
Ar        0.0000000000        0.0000000000       16.8799899543        0.0000000000        0.0000000000        0.0005113925
2
Properties=species:S:1:pos:R:3:forces_ref:R:3 energy_ref=-1148.997232 pbc="T T T" Lattice="19.999988 0.000000 0.000000 0.000000 19.999988 0.000000 0.000000 0.000000 19.999988"
Ar        0.0000000000        0.0000000000        3.1399981313        0.0000000000        0.0000000000       -0.0017414083
Ar        0.0000000000        0.0000000000       16.8599899662        0.0000000000        0.0000000000        0.0017414083
2
Properties=species:S:1:pos:R:3:forces_ref:R:3 energy_ref=-1148.997181 pbc="T T T" Lattice="19.999988 0.000000 0.000000 0.000000 19.999988 0.000000 0.000000 0.000000 19.999988"
Ar        0.0000000000        0.0000000000        3.1599981194        0.0000000000        0.0000000000       -0.0007831581
Ar        0.0000000000        0.0000000000       16.8399899781        0.0000000000        0.0000000000        0.0007831581
2
Properties=species:S:1:pos:R:3:forces_ref:R:3 energy_ref=-1148.997162 pbc="T T T" Lattice="19.999988 0.000000 0.000000 0.000000 19.999988 0.000000 0.000000 0.000000 19.999988"
Ar        0.0000000000        0.0000000000        3.1799981075        0.0000000000        0.0000000000       -0.0001108146
Ar        0.0000000000        0.0000000000       16.8199899900        0.0000000000        0.0000000000        0.0001108146
2
Properties=species:S:1:pos:R:3:forces_ref:R:3 energy_ref=-1148.997144 pbc="T T T" Lattice="19.999988 0.000000 0.000000 0.000000 19.999988 0.000000 0.000000 0.000000 19.999988"
Ar        0.0000000000        0.0000000000        3.1999980956        0.0000000000        0.0000000000       -0.0014228486
Ar        0.0000000000        0.0000000000       16.7999900019        0.0000000000        0.0000000000        0.0014228486
2
Properties=species:S:1:pos:R:3:forces_ref:R:3 energy_ref=-1148.997087 pbc="T T T" Lattice="19.999988 0.000000 0.000000 0.000000 19.999988 0.000000 0.000000 0.000000 19.999988"
Ar        0.0000000000        0.0000000000        3.2199980837        0.0000000000        0.0000000000       -0.0010040159
Ar        0.0000000000        0.0000000000       16.7799900138        0.0000000000        0.0000000000        0.0010040159
2
Properties=species:S:1:pos:R:3:forces_ref:R:3 energy_ref=-1148.997059 pbc="T T T" Lattice="19.999988 0.000000 0.000000 0.000000 19.999988 0.000000 0.000000 0.000000 19.999988"
Ar        0.0000000000        0.0000000000        3.2399980718        0.0000000000        0.0000000000       -0.0002586530
Ar        0.0000000000        0.0000000000       16.7599900257        0.0000000000        0.0000000000        0.0002586530
2
Properties=species:S:1:pos:R:3:forces_ref:R:3 energy_ref=-1148.997060 pbc="T T T" Lattice="19.999988 0.000000 0.000000 0.000000 19.999988 0.000000 0.000000 0.000000 19.999988"
Ar        0.0000000000        0.0000000000        3.2599980599        0.0000000000        0.0000000000       -0.0002267713
Ar        0.0000000000        0.0000000000       16.7399900376        0.0000000000        0.0000000000        0.0002267713
2
Properties=species:S:1:pos:R:3:forces_ref:R:3 energy_ref=-1148.997015 pbc="T T T" Lattice="19.999988 0.000000 0.000000 0.000000 19.999988 0.000000 0.000000 0.000000 19.999988"
Ar        0.0000000000        0.0000000000        3.2799980480        0.0000000000        0.0000000000       -0.0014038224
Ar        0.0000000000        0.0000000000       16.7199900495        0.0000000000        0.0000000000        0.0014038224
2
Properties=species:S:1:pos:R:3:forces_ref:R:3 energy_ref=-1148.996978 pbc="T T T" Lattice="19.999988 0.000000 0.000000 0.000000 19.999988 0.000000 0.000000 0.000000 19.999988"
Ar        0.0000000000        0.0000000000        3.2999980361        0.0000000000        0.0000000000       -0.0005088214
Ar        0.0000000000        0.0000000000       16.6999900614        0.0000000000        0.0000000000        0.0005088214
2
Properties=species:S:1:pos:R:3:forces_ref:R:3 energy_ref=-1148.996972 pbc="T T T" Lattice="19.999988 0.000000 0.000000 0.000000 19.999988 0.000000 0.000000 0.000000 19.999988"
Ar        0.0000000000        0.0000000000        3.3199980242        0.0000000000        0.0000000000        0.0001861479
Ar        0.0000000000        0.0000000000       16.6799900733        0.0000000000        0.0000000000       -0.0001861479
2
Properties=species:S:1:pos:R:3:forces_ref:R:3 energy_ref=-1148.996961 pbc="T T T" Lattice="19.999988 0.000000 0.000000 0.000000 19.999988 0.000000 0.000000 0.000000 19.999988"
Ar        0.0000000000        0.0000000000        3.3399980123        0.0000000000        0.0000000000       -0.0012436427
Ar        0.0000000000        0.0000000000       16.6599900852        0.0000000000        0.0000000000        0.0012436427
2
Properties=species:S:1:pos:R:3:forces_ref:R:3 energy_ref=-1148.996914 pbc="T T T" Lattice="19.999988 0.000000 0.000000 0.000000 19.999988 0.000000 0.000000 0.000000 19.999988"
Ar        0.0000000000        0.0000000000        3.3599980004        0.0000000000        0.0000000000       -0.0007101388
Ar        0.0000000000        0.0000000000       16.6399900971        0.0000000000        0.0000000000        0.0007101388
2
Properties=species:S:1:pos:R:3:forces_ref:R:3 energy_ref=-1148.996897 pbc="T T T" Lattice="19.999988 0.000000 0.000000 0.000000 19.999988 0.000000 0.000000 0.000000 19.999988"
Ar        0.0000000000        0.0000000000        3.3799979885        0.0000000000        0.0000000000       -0.0000817611
Ar        0.0000000000        0.0000000000       16.6199901090        0.0000000000        0.0000000000        0.0000817611
2
Properties=species:S:1:pos:R:3:forces_ref:R:3 energy_ref=-1148.996907 pbc="T T T" Lattice="19.999988 0.000000 0.000000 0.000000 19.999988 0.000000 0.000000 0.000000 19.999988"
Ar        0.0000000000        0.0000000000        3.3999979766        0.0000000000        0.0000000000       -0.0001241843
Ar        0.0000000000        0.0000000000       16.5999901209        0.0000000000        0.0000000000        0.0001241843
2
Properties=species:S:1:pos:R:3:forces_ref:R:3 energy_ref=-1148.996867 pbc="T T T" Lattice="19.999988 0.000000 0.000000 0.000000 19.999988 0.000000 0.000000 0.000000 19.999988"
Ar        0.0000000000        0.0000000000        3.4199979647        0.0000000000        0.0000000000       -0.0010870625
Ar        0.0000000000        0.0000000000       16.5799901328        0.0000000000        0.0000000000        0.0010870625
2
Properties=species:S:1:pos:R:3:forces_ref:R:3 energy_ref=-1148.996840 pbc="T T T" Lattice="19.999988 0.000000 0.000000 0.000000 19.999988 0.000000 0.000000 0.000000 19.999988"
Ar        0.0000000000        0.0000000000        3.4399979528        0.0000000000        0.0000000000       -0.0003262730
Ar        0.0000000000        0.0000000000       16.5599901447        0.0000000000        0.0000000000        0.0003262730
2
Properties=species:S:1:pos:R:3:forces_ref:R:3 energy_ref=-1148.996843 pbc="T T T" Lattice="19.999988 0.000000 0.000000 0.000000 19.999988 0.000000 0.000000 0.000000 19.999988"
Ar        0.0000000000        0.0000000000        3.4599979409        0.0000000000        0.0000000000        0.0003555836
Ar        0.0000000000        0.0000000000       16.5399901566        0.0000000000        0.0000000000       -0.0003555836
2
Properties=species:S:1:pos:R:3:forces_ref:R:3 energy_ref=-1148.996835 pbc="T T T" Lattice="19.999988 0.000000 0.000000 0.000000 19.999988 0.000000 0.000000 0.000000 19.999988"
Ar        0.0000000000        0.0000000000        3.4799979290        0.0000000000        0.0000000000       -0.0010757497
Ar        0.0000000000        0.0000000000       16.5199901685        0.0000000000        0.0000000000        0.0010757497
2
Properties=species:S:1:pos:R:3:forces_ref:R:3 energy_ref=-1148.996796 pbc="T T T" Lattice="19.999988 0.000000 0.000000 0.000000 19.999988 0.000000 0.000000 0.000000 19.999988"
Ar        0.0000000000        0.0000000000        3.4999979171        0.0000000000        0.0000000000       -0.0005057360
Ar        0.0000000000        0.0000000000       16.4999901804        0.0000000000        0.0000000000        0.0005057360
2
Properties=species:S:1:pos:R:3:forces_ref:R:3 energy_ref=-1148.996786 pbc="T T T" Lattice="19.999988 0.000000 0.000000 0.000000 19.999988 0.000000 0.000000 0.000000 19.999988"
Ar        0.0000000000        0.0000000000        3.5199979052        0.0000000000        0.0000000000        0.0001015586
Ar        0.0000000000        0.0000000000       16.4799901923        0.0000000000        0.0000000000       -0.0001015586
2
Properties=species:S:1:pos:R:3:forces_ref:R:3 energy_ref=-1148.996800 pbc="T T T" Lattice="19.999988 0.000000 0.000000 0.000000 19.999988 0.000000 0.000000 0.000000 19.999988"
Ar        0.0000000000        0.0000000000        3.5399978933        0.0000000000        0.0000000000       -0.0001591513
Ar        0.0000000000        0.0000000000       16.4599902042        0.0000000000        0.0000000000        0.0001591513
2
Properties=species:S:1:pos:R:3:forces_ref:R:3 energy_ref=-1148.996764 pbc="T T T" Lattice="19.999988 0.000000 0.000000 0.000000 19.999988 0.000000 0.000000 0.000000 19.999988"
Ar        0.0000000000        0.0000000000        3.5599978814        0.0000000000        0.0000000000       -0.0008633765
Ar        0.0000000000        0.0000000000       16.4399902161        0.0000000000        0.0000000000        0.0008633765
2
Properties=species:S:1:pos:R:3:forces_ref:R:3 energy_ref=-1148.996743 pbc="T T T" Lattice="19.999988 0.000000 0.000000 0.000000 19.999988 0.000000 0.000000 0.000000 19.999988"
Ar        0.0000000000        0.0000000000        3.5799978694        0.0000000000        0.0000000000       -0.0002247144
Ar        0.0000000000        0.0000000000       16.4199902280        0.0000000000        0.0000000000        0.0002247144
2
Properties=species:S:1:pos:R:3:forces_ref:R:3 energy_ref=-1148.996753 pbc="T T T" Lattice="19.999988 0.000000 0.000000 0.000000 19.999988 0.000000 0.000000 0.000000 19.999988"
Ar        0.0000000000        0.0000000000        3.5999978575        0.0000000000        0.0000000000        0.0004959658
Ar        0.0000000000        0.0000000000       16.3999902399        0.0000000000        0.0000000000       -0.0004959658
2
Properties=species:S:1:pos:R:3:forces_ref:R:3 energy_ref=-1148.996746 pbc="T T T" Lattice="19.999988 0.000000 0.000000 0.000000 19.999988 0.000000 0.000000 0.000000 19.999988"
Ar        0.0000000000        0.0000000000        3.6199978456        0.0000000000        0.0000000000       -0.0010423253
Ar        0.0000000000        0.0000000000       16.3799902518        0.0000000000        0.0000000000        0.0010423253
2
Properties=species:S:1:pos:R:3:forces_ref:R:3 energy_ref=-1148.996711 pbc="T T T" Lattice="19.999988 0.000000 0.000000 0.000000 19.999988 0.000000 0.000000 0.000000 19.999988"
Ar        0.0000000000        0.0000000000        3.6399978337        0.0000000000        0.0000000000       -0.0004095768
Ar        0.0000000000        0.0000000000       16.3599902637        0.0000000000        0.0000000000        0.0004095768
2
Properties=species:S:1:pos:R:3:forces_ref:R:3 energy_ref=-1148.996707 pbc="T T T" Lattice="19.999988 0.000000 0.000000 0.000000 19.999988 0.000000 0.000000 0.000000 19.999988"
Ar        0.0000000000        0.0000000000        3.6599978218        0.0000000000        0.0000000000        0.0002655950
Ar        0.0000000000        0.0000000000       16.3399902756        0.0000000000        0.0000000000       -0.0002655950
2
Properties=species:S:1:pos:R:3:forces_ref:R:3 energy_ref=-1148.996725 pbc="T T T" Lattice="19.999988 0.000000 0.000000 0.000000 19.999988 0.000000 0.000000 0.000000 19.999988"
Ar        0.0000000000        0.0000000000        3.6799978099        0.0000000000        0.0000000000       -0.0001768919
Ar        0.0000000000        0.0000000000       16.3199902875        0.0000000000        0.0000000000        0.0001768919
2
Properties=species:S:1:pos:R:3:forces_ref:R:3 energy_ref=-1148.996690 pbc="T T T" Lattice="19.999988 0.000000 0.000000 0.000000 19.999988 0.000000 0.000000 0.000000 19.999988"
Ar        0.0000000000        0.0000000000        3.6999977980        0.0000000000        0.0000000000       -0.0008057838
Ar        0.0000000000        0.0000000000       16.2999902994        0.0000000000        0.0000000000        0.0008057838
2
Properties=species:S:1:pos:R:3:forces_ref:R:3 energy_ref=-1148.996674 pbc="T T T" Lattice="19.999988 0.000000 0.000000 0.000000 19.999988 0.000000 0.000000 0.000000 19.999988"
Ar        0.0000000000        0.0000000000        3.7199977861        0.0000000000        0.0000000000       -0.0001061866
Ar        0.0000000000        0.0000000000       16.2799903113        0.0000000000        0.0000000000        0.0001061866
2
Properties=species:S:1:pos:R:3:forces_ref:R:3 energy_ref=-1148.996688 pbc="T T T" Lattice="19.999988 0.000000 0.000000 0.000000 19.999988 0.000000 0.000000 0.000000 19.999988"
Ar        0.0000000000        0.0000000000        3.7399977742        0.0000000000        0.0000000000        0.0006036951
Ar        0.0000000000        0.0000000000       16.2599903232        0.0000000000        0.0000000000       -0.0006036951
2
Properties=species:S:1:pos:R:3:forces_ref:R:3 energy_ref=-1148.996680 pbc="T T T" Lattice="19.999988 0.000000 0.000000 0.000000 19.999988 0.000000 0.000000 0.000000 19.999988"
Ar        0.0000000000        0.0000000000        3.7599977623        0.0000000000        0.0000000000       -0.0010330693
Ar        0.0000000000        0.0000000000       16.2399903351        0.0000000000        0.0000000000        0.0010330693
2
Properties=species:S:1:pos:R:3:forces_ref:R:3 energy_ref=-1148.996651 pbc="T T T" Lattice="19.999988 0.000000 0.000000 0.000000 19.999988 0.000000 0.000000 0.000000 19.999988"
Ar        0.0000000000        0.0000000000        3.7799977504        0.0000000000        0.0000000000       -0.0003242161
Ar        0.0000000000        0.0000000000       16.2199903471        0.0000000000        0.0000000000        0.0003242161
2
Properties=species:S:1:pos:R:3:forces_ref:R:3 energy_ref=-1148.996651 pbc="T T T" Lattice="19.999988 0.000000 0.000000 0.000000 19.999988 0.000000 0.000000 0.000000 19.999988"
Ar        0.0000000000        0.0000000000        3.7999977385        0.0000000000        0.0000000000        0.0003630398
Ar        0.0000000000        0.0000000000       16.1999903590        0.0000000000        0.0000000000       -0.0003630398
2
Properties=species:S:1:pos:R:3:forces_ref:R:3 energy_ref=-1148.996669 pbc="T T T" Lattice="19.999988 0.000000 0.000000 0.000000 19.999988 0.000000 0.000000 0.000000 19.999988"
Ar        0.0000000000        0.0000000000        3.8199977266        0.0000000000        0.0000000000       -0.0002681661
Ar        0.0000000000        0.0000000000       16.1799903709        0.0000000000        0.0000000000        0.0002681661
2
Properties=species:S:1:pos:R:3:forces_ref:R:3 energy_ref=-1148.996636 pbc="T T T" Lattice="19.999988 0.000000 0.000000 0.000000 19.999988 0.000000 0.000000 0.000000 19.999988"
Ar        0.0000000000        0.0000000000        3.8399977147        0.0000000000        0.0000000000       -0.0007034539
Ar        0.0000000000        0.0000000000       16.1599903828        0.0000000000        0.0000000000        0.0007034539
2
Properties=species:S:1:pos:R:3:forces_ref:R:3 energy_ref=-1148.996624 pbc="T T T" Lattice="19.999988 0.000000 0.000000 0.000000 19.999988 0.000000 0.000000 0.000000 19.999988"
Ar        0.0000000000        0.0000000000        3.8599977028        0.0000000000        0.0000000000       -0.0000305961
Ar        0.0000000000        0.0000000000       16.1399903947        0.0000000000        0.0000000000        0.0000305961
2
Properties=species:S:1:pos:R:3:forces_ref:R:3 energy_ref=-1148.996642 pbc="T T T" Lattice="19.999988 0.000000 0.000000 0.000000 19.999988 0.000000 0.000000 0.000000 19.999988"
Ar        0.0000000000        0.0000000000        3.8799976909        0.0000000000        0.0000000000        0.0005646143
Ar        0.0000000000        0.0000000000       16.1199904066        0.0000000000        0.0000000000       -0.0005646143
2
Properties=species:S:1:pos:R:3:forces_ref:R:3 energy_ref=-1148.996632 pbc="T T T" Lattice="19.999988 0.000000 0.000000 0.000000 19.999988 0.000000 0.000000 0.000000 19.999988"
Ar        0.0000000000        0.0000000000        3.8999976790        0.0000000000        0.0000000000       -0.0009914175
Ar        0.0000000000        0.0000000000       16.0999904185        0.0000000000        0.0000000000        0.0009914175
2
Properties=species:S:1:pos:R:3:forces_ref:R:3 energy_ref=-1148.996606 pbc="T T T" Lattice="19.999988 0.000000 0.000000 0.000000 19.999988 0.000000 0.000000 0.000000 19.999988"
Ar        0.0000000000        0.0000000000        3.9199976671        0.0000000000        0.0000000000       -0.0002483686
Ar        0.0000000000        0.0000000000       16.0799904304        0.0000000000        0.0000000000        0.0002483686
2
Properties=species:S:1:pos:R:3:forces_ref:R:3 energy_ref=-1148.996609 pbc="T T T" Lattice="19.999988 0.000000 0.000000 0.000000 19.999988 0.000000 0.000000 0.000000 19.999988"
Ar        0.0000000000        0.0000000000        3.9399976552        0.0000000000        0.0000000000        0.0004573993
Ar        0.0000000000        0.0000000000       16.0599904423        0.0000000000        0.0000000000       -0.0004573993
2
Properties=species:S:1:pos:R:3:forces_ref:R:3 energy_ref=-1148.996628 pbc="T T T" Lattice="19.999988 0.000000 0.000000 0.000000 19.999988 0.000000 0.000000 0.000000 19.999988"
Ar        0.0000000000        0.0000000000        3.9599976433        0.0000000000        0.0000000000       -0.0003617542
Ar        0.0000000000        0.0000000000       16.0399904542        0.0000000000        0.0000000000        0.0003617542
2
Properties=species:S:1:pos:R:3:forces_ref:R:3 energy_ref=-1148.996595 pbc="T T T" Lattice="19.999988 0.000000 0.000000 0.000000 19.999988 0.000000 0.000000 0.000000 19.999988"
Ar        0.0000000000        0.0000000000        3.9799976314        0.0000000000        0.0000000000       -0.0006119226
Ar        0.0000000000        0.0000000000       16.0199904661        0.0000000000        0.0000000000        0.0006119226
2
Properties=species:S:1:pos:R:3:forces_ref:R:3 energy_ref=-1148.996587 pbc="T T T" Lattice="19.999988 0.000000 0.000000 0.000000 19.999988 0.000000 0.000000 0.000000 19.999988"
Ar        0.0000000000        0.0000000000        3.9999976195        0.0000000000        0.0000000000        0.0000797042
Ar        0.0000000000        0.0000000000       15.9999904780        0.0000000000        0.0000000000       -0.0000797042
