4
Properties=species:S:1:pos:R:3:forces:R:3 energy=1.3813 pbc="T T T" Lattice="5.256000 0.000000 0.000000 0.000000 5.256000 0.000000 0.000000 0.000000 5.256000"
Ar        0.0000000000        0.0000000000        0.0000000000        0.0000000000        0.0000000000        0.0000000000
Ar        0.0000000000        2.6280000210        2.6280000210        0.0000000000        0.0000000000        0.0000000000
Ar        2.6280000210        0.0000000000        2.6280000210        0.0000000000        0.0000000000        0.0000000000
Ar        2.6280000210        2.6280000210        0.0000000000        0.0000000000        0.0000000000        0.0000000000
